BEGIN IONS
TITLE=Scan Number: 3
PEPMASS=331.15399
CHARGE=1+
MSLEVEL=2
FILENAME=C3_GC3_01_2798.mzXML
INSTRUMENT=ion trap
SCANS=3
SMILES=COC1=CC(CCCOC(=O)CCC2=CC=C(O)C=C2)=CC=C1O
INCHIKEY=ZXQHQUXJMNGVJP-UHFFFAOYSA-N
79.056259 136.0 
103.054253 269.0 
105.046509 641.0 
105.070244 3370.0 
105.399162 106.0 
106.074684 569.0 
107.050125 5390.0 
108.054665 507.0 
108.334015 204.0 
121.063499 120.0 
122.033691 1480.0 
123.040314 337.0 
124.076637 187.0 
133.06604 2156.0 
133.097702 222.0 
134.070694 453.0 
135.041977 333.0 
137.060043 7198.0 
137.101166 184.0 
138.064484 1301.0 
147.08252 114.0 
153.068909 118.0 
161.100708 384.0 
165.089005 1141.0 
187.098663 173.0 
222.104813 207.0 
230.111221 167.0 
236.176941 109.0 
242.174683 178.0 
331.212372 233.0 
END IONS

BEGIN IONS
TITLE=Scan Number: 4
PEPMASS=348.181
CHARGE=1+
MSLEVEL=2
FILENAME=C3_GC3_01_2798.mzXML
INSTRUMENT=ion trap
SCANS=4
SMILES=COC1=CC(CCCOC(=O)CCC2=CC=C(O)C=C2)=CC=C1O
INCHIKEY=ZXQHQUXJMNGVJP-UHFFFAOYSA-N
77.038315 226.0 
79.053871 697.0 
80.360466 220.0 
94.042679 184.0 
95.04689 271.0 
97.064552 174.0 
105.044296 117.0 
105.070129 3590.0 
106.081078 246.0 
107.048576 6467.0 
108.051941 414.0 
117.072365 177.0 
121.063866 138.0 
122.036903 1008.0 
124.051338 162.0 
132.05809 159.0 
133.06543 3512.0 
133.10144 206.0 
134.067551 736.0 
137.06012 4567.0 
137.135742 213.0 
138.064301 168.0 
143.080521 182.0 
149.058395 184.0 
157.069946 155.0 
165.091049 2204.0 
169.096695 275.0 
174.109573 197.0 
184.092194 292.0 
187.11499 135.0 
195.114243 147.0 
207.118652 249.0 
END IONS

BEGIN IONS
TITLE=Scan Number: 5
PEPMASS=413.159
CHARGE=1+
MSLEVEL=2
FILENAME=C3_GC3_01_2798.mzXML
INSTRUMENT=ion trap
SCANS=5
SMILES=COC1=CC(C)=C(OC2=CC(OC)=CC(C)=C2OC3=CC(C)=CC(O)=C3O)C(O)=C1
INCHIKEY=CGEQZXRFQKBBQJ-UHFFFAOYSA-N
70.074989 211.0 
71.137794 286.0 
71.824783 276.0 
71.89019 237.0 
72.458488 254.0 
74.62883 145.0 
77.038048 164.0 
79.054688 1023.0 
79.208138 177.0 
79.313461 76.0 
80.056587 340.0 
81.070618 832.0 
82.041794 247.0 
83.013046 1327.0 
83.047348 668.0 
84.817139 316.0 
85.24147 168.0 
88.708069 248.0 
89.03656 152.0 
89.393921 141.0 
90.046356 323.0 
90.99131 331.0 
91.053871 453.0 
92.532448 200.0 
93.034729 483.0 
93.071991 230.0 
94.02108 171.0 
94.042969 1137.0 
94.070206 248.0 
95.0494 963.0 
96.793777 140.0 
97.064751 1052.0 
98.066528 187.0 
98.544022 85.0 
99.046547 312.0 
102.77256 211.0 
105.044701 2365.0 
105.072273 878.0 
106.04734 177.0 
106.140442 99.0 
106.16362 292.0 
106.229805 253.0 
107.051491 1743.0 
107.085335 393.0 
108.05864 2398.0 
108.942001 196.0 
109.027061 741.0 
109.065277 8227.0 
110.03611 3331.0 
110.067688 611.0 
110.209648 195.0 
111.045258 363.0 
112.046898 140.0 
112.654465 266.0 
115.029602 171.0 
115.054291 1566.0 
116.069641 204.0 
116.353683 125.0 
119.055458 391.0 
119.088036 501.0 
119.887337 121.0 
120.059738 493.0 
121.038742 158.0 
121.066269 1115.0 
121.350906 119.0 
121.466034 123.0 
122.029404 137.0 
122.072823 432.0 
123.045456 3555.0 
123.081779 1123.0 
124.052116 3788.0 
124.997047 216.0 
125.025299 631.0 
125.060432 72932.0 
125.093155 281.0 
126.018707 188.0 
126.063049 4029.0 
126.300842 273.0 
126.625824 129.0 
127.057739 232.0 
127.13868 90.0 
127.680061 134.0 
127.918831 173.0 
128.06218 2625.0 
128.096313 350.0 
128.453278 226.0 
128.78064 101.0 
129.07103 1167.0 
130.075348 686.0 
131.05191 995.0 
131.087738 690.0 
132.087677 221.0 
132.506912 137.0 
133.098831 194.0 
133.136658 103.0 
135.037476 399.0 
135.080307 1361.0 
135.744293 92.0 
137.060013 19420.0 
137.234116 173.0 
137.446854 89.0 
138.068176 16915.0 
138.204468 106.0 
138.331589 281.0 
138.803314 82.0 
138.95105 92.0 
139.040146 1235.0 
139.073318 1672.0 
139.219269 139.0 
141.07164 3133.0 
142.082565 1149.0 
143.047562 683.0 
143.087799 936.0 
144.056168 534.0 
144.563217 261.0 
145.034317 170.0 
145.063446 1733.0 
145.101456 281.0 
146.071426 583.0 
147.080536 559.0 
147.115753 117.0 
148.519241 142.0 
149.022873 252.0 
149.064911 186.0 
149.093475 111.0 
149.207993 320.0 
150.033493 185.0 
150.070816 173.0 
151.041153 2109.0 
151.076477 1317.0 
151.821564 153.0 
152.04895 1501.0 
152.655746 85.0 
152.863373 544.0 
153.055679 69206.0 
153.130173 99.0 
153.241394 131.0 
153.309937 252.0 
153.346481 107.0 
153.444733 125.0 
153.495026 127.0 
153.734039 144.0 
153.890411 111.0 
153.933731 131.0 
154.059296 5424.0 
154.680222 139.0 
154.954163 209.0 
155.058121 589.0 
155.086639 856.0 
155.778809 281.0 
156.058395 311.0 
156.92012 241.0 
157.054123 366.0 
158.073547 7153.0 
159.017975 245.0 
159.046951 452.0 
159.078842 2481.0 
160.085663 426.0 
160.327499 185.0 
161.061569 516.0 
161.095947 240.0 
161.493393 80.0 
162.06424 490.0 
163.016724 148.0 
163.048004 436.0 
163.07782 684.0 
164.046143 203.0 
164.105667 166.0 
164.358002 159.0 
165.056122 1558.0 
165.763901 115.0 
168.055588 476.0 
168.242157 123.0 
169.023239 148.0 
169.067612 2642.0 
169.301544 93.0 
170.071442 1611.0 
171.04277 158.0 
171.082153 1931.0 
172.038147 324.0 
172.077026 215.0 
173.057785 395.0 
173.096375 3384.0 
173.19783 147.0 
174.067307 170.0 
174.871902 187.0 
175.034943 319.0 
175.077637 1939.0 
176.039795 267.0 
176.078445 181.0 
177.05513 477.0 
177.088287 500.0 
177.396744 124.0 
179.051651 85.0 
179.107697 101.0 
183.037521 99.0 
183.08168 587.0 
183.241745 231.0 
185.060532 1105.0 
185.097504 300.0 
186.069962 3166.0 
187.075638 2087.0 
189.055176 936.0 
189.392746 126.0 
190.063797 485.0 
191.042892 155.0 
191.071106 1571.0 
191.102859 469.0 
193.045181 170.0 
196.049622 196.0 
197.05925 2171.0 
197.444931 288.0 
197.804108 226.0 
198.068161 1232.0 
199.039108 391.0 
199.075012 1564.0 
200.017975 100.0 
200.04361 257.0 
200.080536 495.0 
200.63739 246.0 
200.76236 148.0 
201.05246 1009.0 
201.092255 4834.0 
202.096619 581.0 
203.054642 175.0 
204.077332 417.0 
205.042328 323.0 
205.090103 800.0 
211.079514 818.0 
212.048065 96.0 
212.087677 166.0 
213.051849 801.0 
213.087097 251.0 
213.985687 345.0 
214.063354 7181.0 
215.069641 6383.0 
216.076752 1237.0 
216.554703 153.0 
216.669403 125.0 
217.047684 2151.0 
217.085022 424.0 
218.04808 324.0 
218.092361 264.0 
219.06366 239.0 
219.108139 721.0 
221.112732 218.0 
223.061691 152.0 
225.04982 182.0 
227.070877 1553.0 
228.0383 343.0 
228.081268 881.0 
229.086258 42018.0 
229.29245 203.0 
229.48938 121.0 
230.058655 760.0 
230.088791 5288.0 
231.010117 133.0 
231.105453 341.0 
231.880554 84.0 
232.069092 702.0 
232.119675 292.0 
233.0849 580.0 
234.08287 249.0 
240.847382 198.0 
242.056046 1127.0 
242.111496 152.0 
243.065369 5532.0 
243.103531 658.0 
243.966675 109.0 
244.073288 6403.0 
245.000046 106.0 
245.046295 1570.0 
245.078217 2182.0 
246.04863 374.0 
246.096237 125.0 
246.663834 111.0 
247.096436 2126.0 
256.07132 144.0 
256.932526 175.0 
257.032959 633.0 
257.08136 42360.0 
258.011414 151.0 
258.086945 7355.0 
259.068298 536.0 
259.092255 506.0 
259.392761 103.0 
260.068481 6769.0 
260.105927 11032.0 
261.075165 981.0 
261.112122 5335.0 
261.446381 112.0 
262.11441 633.0 
263.113281 146.0 
264.064819 212.0 
273.081543 94.0 
274.117615 516.0 
274.826263 169.0 
275.093475 19519.0 
275.614594 85.0 
276.098602 3682.0 
276.197449 93.0 
276.722137 124.0 
311.095551 108.0 
325.146057 273.0 
364.106384 175.0 
367.150909 246.0 
395.153931 148.0 
501.46814 105.0 
572.886597 65.0 
1543.618042 270.0 
1544.43811 97.0 
1694.864746 283.0 
1706.025391 185.0 
1776.076782 275.0 
END IONS

BEGIN IONS
TITLE=Scan Number: 6
PEPMASS=430.186
CHARGE=1+
MSLEVEL=2
FILENAME=C3_GC3_01_2798.mzXML
INSTRUMENT=ion trap
SCANS=6
SMILES=COC1=CC(C)=C(OC2=CC(OC)=CC(C)=C2OC3=CC(C)=CC(O)=C3O)C(O)=C1
INCHIKEY=CGEQZXRFQKBBQJ-UHFFFAOYSA-N
82.042564 170.0 
87.081512 164.0 
91.05323 638.0 
93.03228 151.0 
95.670784 159.0 
105.03952 369.0 
108.054672 195.0 
109.029762 122.0 
109.066338 939.0 
110.06913 139.0 
119.06163 225.0 
119.082024 942.0 
120.050232 196.0 
121.063126 191.0 
122.074081 224.0 
123.044754 321.0 
123.225113 116.0 
124.052902 650.0 
125.018723 365.0 
125.060577 8621.0 
125.249664 110.0 
126.064407 363.0 
133.064438 453.0 
135.081284 199.0 
137.058075 3542.0 
138.067856 2881.0 
139.039276 406.0 
139.070801 423.0 
143.083572 524.0 
145.065552 189.0 
145.095032 236.0 
151.038086 208.0 
151.073792 667.0 
152.050003 476.0 
153.055634 9669.0 
154.063431 650.0 
154.088531 182.0 
154.748184 106.0 
155.06073 161.0 
155.276398 99.0 
156.065369 236.0 
156.102951 172.0 
158.076004 1326.0 
159.045105 168.0 
159.081711 171.0 
162.069382 123.0 
164.443939 156.0 
165.053467 352.0 
165.620346 126.0 
166.044815 164.0 
168.053665 172.0 
171.086349 234.0 
173.095627 328.0 
174.066681 172.0 
174.105179 211.0 
175.073013 232.0 
183.08313 197.0 
187.078827 184.0 
189.033173 153.0 
189.096268 218.0 
190.063095 161.0 
191.073898 240.0 
197.059753 272.0 
198.064911 130.0 
200.04834 141.0 
200.084259 295.0 
201.091599 1186.0 
202.093903 158.0 
203.365646 138.0 
205.089493 565.0 
211.086121 222.0 
214.06369 656.0 
215.071014 680.0 
217.055222 174.0 
226.06308 191.0 
227.075363 150.0 
229.086594 4197.0 
230.090927 958.0 
231.053162 146.0 
234.07402 191.0 
242.041946 180.0 
243.06778 595.0 
244.073959 400.0 
245.003204 141.0 
245.048065 472.0 
245.086578 508.0 
247.096985 613.0 
251.116898 255.0 
257.080414 5292.0 
258.093872 440.0 
259.099213 190.0 
259.540833 349.0 
260.067535 1199.0 
260.107758 1109.0 
261.068512 154.0 
261.115753 327.0 
274.119812 686.0 
275.094879 2469.0 
275.123993 901.0 
276.095459 495.0 
288.102295 213.0 
299.169952 158.0 
307.09848 173.0 
350.077393 157.0 
371.154175 133.0 
413.137238 97.0 
413.169342 264.0 
414.176086 164.0 
429.161987 124.0 
430.252655 256.0 
431.291779 109.0 
1382.154053 118.0 
END IONS

BEGIN IONS
TITLE=Scan Number: 10
PEPMASS=1014.34003
CHARGE=1+
MSLEVEL=2
FILENAME=C3_GC3_01_2798.mzXML
INSTRUMENT=ion trap
SCANS=10
SMILES=OC[C@H]1O[C@@H](OC2=CC=C(COC(=O)CC(O)(CC(=O)OCC3=CC=C(O[C@@H]4O[C@H](CO)[C@@H](O)[C@H](O)[C@H]4O)C=C3)C(=O)OCC5=CC=C(O[C@@H]6O[C@H](CO)[C@@H](O)[C@H](O)[C@H]6O)C=C5)C=C2)[C@H](O)[C@@H](O)[C@@H]1O
INCHIKEY=WYKQPGOKTKQHQG-SHGJSZTHSA-N
75.64682 338.0 
77.040665 561.0 
81.034248 194.0 
85.028824 826.0 
89.415817 107.0 
103.003639 191.0 
105.039528 275.0 
106.899666 164.0 
107.049866 61902.0 
107.140427 190.0 
107.390038 99.0 
108.052292 3491.0 
108.884819 112.0 
109.030434 163.0 
119.456978 115.0 
145.049911 194.0 
149.06192 236.0 
161.063232 181.0 
163.059402 300.0 
174.452087 216.0 
181.046494 109.0 
193.026871 155.0 
207.06752 211.0 
213.092804 7906.0 
214.096725 1161.0 
215.014404 398.0 
215.104782 210.0 
242.037018 94.0 
269.105774 1558.0 
270.874481 172.0 
279.037781 230.0 
289.106537 234.0 
299.075806 3799.0 
300.085602 632.0 
301.079803 193.0 
325.055695 157.0 
325.113434 736.0 
326.123901 125.0 
345.167267 199.0 
359.135315 227.0 
375.126251 251.0 
376.150635 161.0 
404.460297 139.0 
404.865234 107.0 
405.123383 1663.0 
406.123291 277.0 
431.120056 280.0 
431.174011 661.0 
440.060547 125.0 
450.107635 114.0 
461.137848 187.0 
462.139771 230.0 
535.179504 204.0 
538.171997 157.0 
548.171448 131.0 
554.219727 132.0 
558.165771 127.0 
567.170105 145.0 
593.212402 230.0 
647.141846 211.0 
707.209045 118.0 
767.16925 268.0 
785.218262 115.0 
842.248413 184.0 
1006.151917 110.0 
1014.183044 102.0 
1014.349731 4208.0 
1015.358521 659.0 
1015.716187 109.0 
1016.179871 159.0 
1016.358826 585.0 
1496.330444 132.0 
1647.541626 149.0 
END IONS

BEGIN IONS
TITLE=Scan Number: 11
PEPMASS=248.149
CHARGE=1+
MSLEVEL=2
FILENAME=E11_GE11_01_2636.mzXML
INSTRUMENT=ion trap
SCANS=11
SMILES=CCCC(O)C(O)C1CC(OC)=CC(=O)O1
INCHIKEY=YLHOHANRUSKHKO-UHFFFAOYSA-N
79.052711 214.0 
81.034271 2351.0 
81.070496 177.0 
82.040588 336.0 
83.68708 248.0 
85.027878 241.0 
85.0662 588.0 
87.041222 343.0 
91.032013 277.0 
91.053932 740.0 
93.069733 877.0 
94.074532 151.0 
95.047684 932.0 
97.027557 402.0 
97.064743 446.0 
98.022537 229.0 
98.066269 192.0 
98.925941 317.0 
99.043655 355.0 
103.05481 185.0 
105.043556 538.0 
105.067398 151.0 
107.050613 168.0 
107.084305 185.0 
109.028084 183.0 
109.066208 399.0 
109.097588 153.0 
110.031113 117.0 
110.068092 201.0 
111.044617 2307.0 
111.079803 162.0 
113.058533 2619.0 
114.061859 216.0 
115.03846 397.0 
116.062584 140.0 
117.068542 542.0 
119.085495 501.0 
121.028954 812.0 
121.06234 836.0 
121.192261 122.0 
122.027969 179.0 
123.047585 689.0 
123.083206 144.0 
124.053581 146.0 
125.019264 411.0 
125.057579 756.0 
125.096115 180.0 
126.060585 165.0 
127.037811 1617.0 
129.05484 382.0 
129.088898 180.0 
132.036133 163.0 
135.054962 117.0 
135.080078 814.0 
136.084396 504.0 
137.089706 376.0 
138.073303 143.0 
139.037689 452.0 
139.074661 1935.0 
139.11116 549.0 
140.040833 162.0 
140.869354 86.0 
141.054932 2449.0 
141.158813 119.0 
141.295898 109.0 
143.029343 451.0 
147.030594 153.0 
149.096817 497.0 
151.112167 2504.0 
152.114944 362.0 
153.054077 142.0 
153.09053 797.0 
155.064957 214.0 
155.103073 674.0 
156.107971 147.0 
157.051132 1221.0 
157.086975 123.0 
163.072113 544.0 
167.106476 1907.0 
168.080322 119.0 
169.120667 851.0 
171.101151 552.0 
177.085403 190.0 
178.092575 128.0 
180.042068 125.0 
181.011963 342.0 
181.086182 6977.0 
182.088303 283.0 
185.110931 215.0 
189.084442 226.0 
189.109604 326.0 
195.101486 3935.0 
195.447845 314.0 
196.109299 455.0 
199.096832 431.0 
213.113693 2827.0 
231.12262 5004.0 
232.125809 298.0 
305.734558 171.0 
1213.648193 164.0 
1418.315308 301.0 
1634.737671 253.0 
1639.929932 244.0 
1808.352295 168.0 
1857.626221 266.0 
2000.526978 123.0 
END IONS

BEGIN IONS
TITLE=Scan Number: 12
PEPMASS=244.22701
CHARGE=1+
MSLEVEL=2
FILENAME=E11_GE11_01_2636.mzXML
INSTRUMENT=ion trap
SCANS=12
SMILES=CC(=O)NCCCCCCCCCC(C)(C)O
INCHIKEY=YASDXQQLKVMDLE-UHFFFAOYSA-N
78.110107 57.0 
78.941513 161.0 
81.06974 96.0 
83.085503 3454.0 
84.085587 195.0 
85.101357 366.0 
86.055405 177.0 
86.097031 752.0 
95.084145 538.0 
97.101379 4920.0 
98.103439 186.0 
98.388504 137.0 
98.537781 190.0 
100.078125 515.0 
100.109612 563.0 
101.738091 197.0 
105.4384 87.0 
111.116821 3584.0 
112.109337 224.0 
114.054916 154.0 
114.088188 141.0 
114.126984 2416.0 
114.271149 116.0 
115.1287 118.0 
123.113785 166.0 
125.105515 188.0 
125.133698 240.0 
126.395287 85.0 
128.106216 748.0 
128.143539 4152.0 
129.147461 553.0 
129.507523 180.0 
140.143326 231.0 
142.123764 2469.0 
142.158661 5979.0 
143.086029 181.0 
143.159805 174.0 
144.369949 310.0 
150.767471 288.0 
156.138214 3564.0 
157.145172 219.0 
158.174164 224.0 
158.919815 76.0 
167.178375 187.0 
167.290329 215.0 
167.704758 119.0 
168.171585 154.0 
170.153625 5026.0 
171.155472 274.0 
172.516495 121.0 
182.189163 479.0 
182.886139 110.0 
182.98175 209.0 
183.111008 158.0 
183.172104 373.0 
183.201523 159.0 
183.262634 108.0 
183.451935 60.0 
183.817291 157.0 
183.901642 92.0 
183.931961 135.0 
183.981262 220.0 
184.052078 107.0 
184.114777 258.0 
184.206238 140919.0 
184.303085 116.0 
184.431778 47.0 
184.518417 76.0 
184.62645 114.0 
184.65097 71.0 
185.168243 392.0 
185.210464 7752.0 
185.250244 25.0 
185.547775 131.0 
185.875977 98.0 
186.394928 123.0 
186.447556 80.0 
186.606583 147.0 
193.792786 74.0 
194.417007 216.0 
195.403946 218.0 
195.574081 58.0 
203.492294 324.0 
206.100479 48.0 
208.204803 312.0 
211.28392 49.0 
221.185257 214.0 
224.718231 234.0 
224.805206 178.0 
225.094681 229.0 
225.376572 122.0 
225.653809 77.0 
225.906693 210.0 
225.957581 147.0 
226.115265 275.0 
226.135849 160.0 
226.216797 87167.0 
226.280228 269.0 
226.345642 120.0 
226.392044 44.0 
226.420822 79.0 
226.577332 24.0 
226.80072 121.0 
226.907684 94.0 
227.00116 282.0 
227.220459 5259.0 
227.383789 65.0 
228.612549 98.0 
228.710678 64.0 
228.803329 100.0 
228.947098 84.0 
239.717926 110.0 
241.014252 117.0 
241.970932 25.0 
252.575729 68.0 
259.512085 64.0 
1128.401611 297.0 
1265.52832 204.0 
1343.500122 106.0 
1354.401367 47.0 
1372.842407 109.0 
1486.359009 283.0 
1578.898315 261.0 
1605.43689 283.0 
1686.318848 328.0 
1687.914429 195.0 
1713.657959 128.0 
1750.761841 262.0 
1881.560303 431.0 
1904.371582 45.0 
1955.78894 320.0 
1957.875 189.0 
1977.862427 260.0 
1983.19165 374.0 
1983.522461 22.0 
2000.047607 192.0 
END IONS

BEGIN IONS
TITLE=Scan Number: 13
PEPMASS=226.216
CHARGE=1+
MSLEVEL=2
FILENAME=E11_GE11_01_2636.mzXML
INSTRUMENT=ion trap
SCANS=13
SMILES=CC(=O)NCCCCCCCCCC(C)(C)O
INCHIKEY=YASDXQQLKVMDLE-UHFFFAOYSA-N
83.08136 279.0 
86.084175 191.0 
97.102707 383.0 
98.107269 207.0 
109.101654 401.0 
111.117455 552.0 
114.126755 289.0 
128.127823 197.0 
142.158524 462.0 
156.139511 207.0 
182.191635 189.0 
184.172836 116.0 
184.20665 6761.0 
185.208847 446.0 
219.069962 241.0 
226.21727 1171.0 
1656.36145 285.0 
1774.885864 251.0 
END IONS

BEGIN IONS
TITLE=Scan Number: 14
PEPMASS=266.20901
CHARGE=1+
MSLEVEL=2
FILENAME=E11_GE11_01_2636.mzXML
INSTRUMENT=ion trap
SCANS=14
SMILES=CC(=O)NCCCCCCCCCC(C)(C)O
INCHIKEY=YASDXQQLKVMDLE-UHFFFAOYSA-N
149.819916 212.0 
193.931458 102.0 
248.196625 190.0 
265.983032 168.0 
266.209961 18499.0 
267.170593 77.0 
267.208771 892.0 
269.368652 172.0 
1804.058594 167.0 
END IONS

BEGIN IONS
TITLE=Scan Number: 15
PEPMASS=329.26801
CHARGE=1+
MSLEVEL=2
FILENAME=E11_GE11_01_2636.mzXML
INSTRUMENT=ion trap
SCANS=15
SMILES=CC(=O)OC(CO)CC(O)CCCCCCCCCCCC=C
INCHIKEY=LUIGTZGBXWZJAX-UHFFFAOYSA-N
77.028664 199.0 
79.054359 4420.0 
79.575478 86.0 
80.060066 183.0 
81.069794 8091.0 
82.076202 489.0 
83.086609 207.0 
84.089409 226.0 
87.043541 324.0 
91.029083 207.0 
91.056564 730.0 
91.239235 214.0 
92.063751 180.0 
93.070709 4229.0 
94.07225 413.0 
94.366043 121.0 
95.049339 363.0 
95.08593 12775.0 
96.087776 1204.0 
97.054108 331.0 
97.102142 987.0 
98.096481 199.0 
103.053917 209.0 
105.044456 1255.0 
105.071205 358.0 
107.086494 3232.0 
108.093254 321.0 
109.101791 3308.0 
110.10598 402.0 
110.906105 159.0 
111.080551 310.0 
111.116013 588.0 
121.101738 3728.0 
123.119522 1136.0 
125.079552 187.0 
135.118301 3254.0 
136.122803 185.0 
137.13298 1391.0 
138.719986 129.0 
139.144608 156.0 
141.133865 162.0 
143.143036 243.0 
149.134369 1461.0 
151.151199 1479.0 
152.150391 216.0 
157.800415 110.0 
163.149368 413.0 
165.165985 418.0 
177.165848 401.0 
191.175308 355.0 
225.222076 249.0 
231.207809 85.0 
233.009842 150.0 
233.227951 2386.0 
234.229324 167.0 
251.185547 195.0 
251.238037 1354.0 
252.186188 115.0 
269.247772 1717.0 
1548.572754 243.0 
1592.972412 254.0 
1635.440918 232.0 
1821.178467 351.0 
1902.560791 197.0 
END IONS

BEGIN IONS
TITLE=Scan Number: 16
PEPMASS=311.25699
CHARGE=1+
MSLEVEL=2
FILENAME=E11_GE11_01_2636.mzXML
INSTRUMENT=ion trap
SCANS=16
SMILES=CC(=O)OC(CO)CC(O)CCCCCCCCCCCC=C
INCHIKEY=LUIGTZGBXWZJAX-UHFFFAOYSA-N
77.039314 232.0 
79.053764 3041.0 
80.056458 133.0 
81.069893 8235.0 
82.075661 782.0 
83.085991 333.0 
84.08934 180.0 
84.782127 151.0 
84.809418 129.0 
85.063004 239.0 
88.110489 438.0 
91.053398 750.0 
92.709259 346.0 
93.070244 3944.0 
94.071251 342.0 
95.085732 7752.0 
96.090347 818.0 
97.06501 166.0 
104.973221 163.0 
105.048164 715.0 
106.04821 157.0 
106.11895 177.0 
107.085052 819.0 
108.08844 159.0 
109.102188 2530.0 
110.104576 270.0 
111.102409 214.0 
119.056747 163.0 
119.08374 179.0 
121.102036 1809.0 
123.115311 494.0 
135.118774 1375.0 
136.12085 153.0 
137.133469 575.0 
149.133362 929.0 
149.972321 150.0 
151.143494 105.0 
163.146667 141.0 
177.165985 352.0 
192.176834 106.0 
208.216125 127.0 
233.226883 186.0 
251.238861 480.0 
269.240509 188.0 
1218.396973 171.0 
1617.773193 164.0 
END IONS

BEGIN IONS
TITLE=Scan Number: 17
PEPMASS=346.29501
CHARGE=1+
MSLEVEL=2
FILENAME=E11_GE11_01_2636.mzXML
INSTRUMENT=ion trap
SCANS=17
SMILES=CC(=O)OC(CO)CC(O)CCCCCCCCCCCC=C
INCHIKEY=LUIGTZGBXWZJAX-UHFFFAOYSA-N
77.038399 249.0 
79.054413 5726.0 
79.146706 302.0 
80.060623 183.0 
80.523399 233.0 
81.069511 23203.0 
82.075409 671.0 
82.669136 152.0 
83.050423 286.0 
83.086029 2309.0 
84.052399 195.0 
84.092735 127.0 
85.06591 687.0 
87.04393 571.0 
91.052826 1662.0 
92.880646 131.0 
93.070435 8426.0 
94.072029 359.0 
94.761681 123.0 
95.048759 476.0 
95.085449 30192.0 
95.277718 167.0 
95.329582 118.0 
95.352913 93.0 
95.466164 134.0 
96.08873 914.0 
97.065453 207.0 
97.100082 848.0 
97.59182 239.0 
98.636749 146.0 
98.779495 76.0 
103.037781 479.0 
105.041412 1112.0 
105.069389 1156.0 
105.907524 200.0 
107.085533 6220.0 
109.100723 12416.0 
109.132439 246.0 
110.104301 853.0 
111.082909 569.0 
111.117317 1152.0 
111.452934 82.0 
119.043213 136.0 
119.060471 500.0 
119.087029 162.0 
121.101166 13295.0 
122.105217 537.0 
123.030365 106.0 
123.116386 2350.0 
125.133057 269.0 
126.137993 201.0 
134.114395 449.0 
135.11734 11756.0 
136.119507 1036.0 
137.13298 3214.0 
138.137772 219.0 
139.112396 517.0 
141.124008 171.0 
141.166061 153.0 
143.104904 227.0 
143.146164 200.0 
149.134079 4699.0 
149.190216 231.0 
150.136581 724.0 
151.148376 2070.0 
153.130814 182.0 
153.165283 179.0 
155.139893 309.0 
163.150269 2228.0 
164.084137 162.0 
164.152634 676.0 
165.162659 208.0 
177.163971 1083.0 
178.163712 258.0 
179.181 832.0 
183.1772 311.0 
191.181534 605.0 
193.195038 289.0 
197.187744 184.0 
205.195068 177.0 
206.661285 111.0 
207.214798 1157.0 
209.199265 239.0 
210.201477 113.0 
221.219894 148.0 
225.197235 223.0 
227.1996 166.0 
233.227554 12322.0 
234.231247 942.0 
250.211975 195.0 
251.176025 133.0 
251.210419 191.0 
251.238693 3376.0 
252.243347 251.0 
268.64621 183.0 
269.249359 5595.0 
270.25061 636.0 
271.43985 92.0 
293.253021 159.0 
311.25473 140.0 
1345.155029 252.0 
1373.113403 351.0 
1436.68396 214.0 
1484.368652 266.0 
1606.676147 194.0 
1628.804932 313.0 
1641.541748 181.0 
1731.883911 155.0 
1736.880249 275.0 
1778.04895 346.0 
1906.175781 268.0 
1915.355347 140.0 
END IONS

BEGIN IONS
TITLE=Scan Number: 21
PEPMASS=415.20901
CHARGE=1+
MSLEVEL=2
FILENAME=E11_GE11_01_2636.mzXML
INSTRUMENT=ion trap
SCANS=21
SMILES=CC(=O)OC\C(CCC1C(C=O)=CC(O)C2C(C)(C)CCCC12C)=C\C(O)=O
INCHIKEY=XMWOVKVFIVCVPN-XNTDXEJSSA-N
79.02124 162.0 
79.053375 210.0 
83.04908 662.0 
85.026703 1112.0 
87.039871 203.0 
91.053932 5627.0 
92.05822 185.0 
93.069069 763.0 
93.688248 94.0 
94.211998 310.0 
95.085968 149.0 
96.277054 106.0 
97.028404 154.0 
98.759079 121.0 
99.044449 292.0 
100.305222 230.0 
103.053787 1617.0 
104.062843 1284.0 
105.043358 477.0 
105.069626 1313.0 
106.060959 82.0 
107.084862 22543.0 
108.089256 1397.0 
109.060387 724.0 
109.788391 177.0 
110.785751 239.0 
111.024986 144.0 
111.042976 849.0 
113.930794 214.0 
115.054657 903.0 
115.626015 220.0 
116.999474 287.0 
117.06852 2149.0 
118.051895 289.0 
118.069794 222.0 
118.427994 145.0 
118.952339 199.0 
119.030846 335.0 
119.061447 3983.0 
119.085091 77293.0 
119.176445 177.0 
120.060585 178.0 
120.089752 6331.0 
120.850281 132.0 
121.087303 217.0 
121.150497 95.0 
126.288536 128.0 
129.053711 475.0 
130.009308 218.0 
130.081619 190.0 
131.08728 94.0 
133.065643 1558.0 
133.650269 211.0 
134.073074 286.0 
134.104462 189.0 
135.080063 18973.0 
135.129486 255.0 
135.716171 114.0 
136.084854 1260.0 
142.062637 268.0 
143.200592 151.0 
145.102295 285.0 
145.156845 127.0 
147.061996 736.0 
148.113983 124.0 
150.969589 110.0 
151.01123 195.0 
155.059799 270.0 
156.096436 151.0 
158.064758 140.0 
159.116409 275.0 
159.169449 230.0 
197.040543 213.0 
207.099579 173.0 
213.066269 141.0 
224.13887 149.0 
276.150848 171.0 
279.11438 113.0 
281.141968 204.0 
281.508636 155.0 
283.16156 119.0 
316.098022 201.0 
339.161865 95.0 
398.208557 159.0 
415.213531 1277.0 
415.988312 121.0 
416.211487 146.0 
416.66803 108.0 
673.401489 221.0 
1339.302124 181.0 
1688.87793 218.0 
1741.088867 230.0 
1892.81958 181.0 
1943.897217 247.0 
END IONS

BEGIN IONS
TITLE=Scan Number: 22
PEPMASS=485.25
CHARGE=1+
MSLEVEL=2
FILENAME=E11_GE11_01_2636.mzXML
INSTRUMENT=ion trap
SCANS=22
SMILES=CC(C)C1NC(=O)C(C)NC(=O)C(CC2=CNC3=C2C=CC=C3)NC(=O)C(C)NC(=O)CNC1=O
INCHIKEY=NYPFHMYOQFDZQG-UHFFFAOYSA-N
75.217209 76.0 
75.426125 392.0 
77.044571 193.0 
77.616653 80.0 
77.705643 180.0 
79.499153 128.0 
79.814568 105.0 
80.487129 352.0 
81.767639 245.0 
82.550362 149.0 
83.058441 176.0 
83.657188 111.0 
84.082748 636.0 
85.030693 255.0 
85.077332 252.0 
85.455513 271.0 
86.202972 319.0 
86.953667 339.0 
87.054726 171.0 
87.896561 213.0 
88.034729 233.0 
89.033745 192.0 
90.09568 292.0 
91.790749 163.0 
93.156502 285.0 
95.075211 149.0 
95.371239 60.0 
97.073425 105.0 
97.116661 245.0 
98.096893 3074.0 
98.978844 130.0 
99.054794 32438.0 
99.16008 104.0 
99.770126 52.0 
99.807823 217.0 
100.056435 712.0 
100.381653 290.0 
100.58773 156.0 
100.885254 59.0 
101.002861 94.0 
101.070259 5430.0 
102.005302 109.0 
102.074211 481.0 
102.45517 93.0 
103.23011 193.0 
107.337822 226.0 
107.620285 195.0 
108.084 226.0 
110.049744 221.0 
110.099648 389.0 
111.05352 1223.0 
112.036667 634.0 
112.281891 181.0 
112.98867 268.0 
113.073067 438.0 
113.236694 321.0 
114.752136 124.0 
114.895203 275.0 
115.053421 1909.0 
115.086975 312.0 
115.125267 244.0 
115.518646 274.0 
117.05661 2153.0 
117.440285 80.0 
118.065071 1986.0 
118.100189 199.0 
119.074936 179.0 
121.406555 180.0 
121.429474 193.0 
123.215881 296.0 
123.848915 246.0 
125.073517 200.0 
125.103851 147.0 
126.090698 241.0 
126.716072 181.0 
127.051987 724.0 
127.086288 1166.0 
127.124954 538.0 
128.011688 197.0 
128.124496 262.0 
128.687225 244.0 
129.064865 16583.0 
129.10199 33278.0 
129.156326 203.0 
129.564072 119.0 
129.902084 166.0 
130.004318 108.0 
130.064758 75049.0 
130.104294 2304.0 
130.193954 61.0 
130.393921 154.0 
130.988388 145.0 
131.068634 7106.0 
131.874069 66.0 
131.948929 272.0 
131.977081 188.0 
132.079971 51992.0 
132.204895 62.0 
132.27037 94.0 
133.082611 5219.0 
133.243286 195.0 
133.969437 114.0 
134.003128 137.0 
134.042114 201.0 
134.219513 117.0 
135.21489 169.0 
137.075485 157.0 
138.064468 188.0 
138.824326 153.0 
138.989304 231.0 
139.051224 1149.0 
139.086899 1095.0 
139.274231 119.0 
140.053864 401.0 
140.082336 562.0 
140.172592 65.0 
140.569061 343.0 
141.041946 110.0 
141.067001 1836.0 
141.838776 258.0 
142.064941 6378.0 
143.048691 156.0 
143.076782 4012.0 
143.119171 2930.0 
143.294785 187.0 
143.380417 101.0 
144.080292 18781.0 
144.306595 100.0 
144.41188 144.0 
144.604355 222.0 
145.079559 1763.0 
145.254349 60.0 
145.325989 266.0 
145.372284 148.0 
146.09108 162.0 
146.371811 171.0 
148.016174 90.0 
148.599075 261.0 
148.815216 257.0 
149.066147 203.0 
149.104782 202.0 
149.751221 233.0 
150.178772 216.0 
151.050293 162.0 
151.132965 173.0 
152.072281 215.0 
152.5634 216.0 
153.066589 503.0 
153.103027 886.0 
153.143127 198.0 
154.034073 186.0 
154.062042 1245.0 
154.09166 373.0 
155.081467 3373.0 
155.116608 5085.0 
155.505447 230.0 
155.632629 193.0 
155.876114 68.0 
156.078033 3811.0 
156.118057 314.0 
157.097076 17042.0 
157.307724 59.0 
157.477905 109.0 
157.83255 195.0 
157.906631 85.0 
158.093704 33567.0 
158.130981 88.0 
158.165909 177.0 
158.260086 77.0 
158.290848 252.0 
158.345276 81.0 
158.424927 108.0 
158.654541 71.0 
158.681625 196.0 
158.833008 167.0 
158.86644 311.0 
159.000458 403.0 
159.038788 1132.0 
159.091629 242885.0 
159.167221 321.0 
159.221909 239.0 
159.308197 273.0 
159.367935 68.0 
159.418808 85.0 
159.663757 81.0 
159.970932 143.0 
160.030304 89.0 
160.094467 20114.0 
160.335724 151.0 
160.80455 74.0 
161.099411 941.0 
161.22467 110.0 
161.275253 143.0 
161.292465 185.0 
161.377548 96.0 
161.534454 113.0 
161.612381 141.0 
161.935196 70.0 
162.00058 133.0 
162.67569 145.0 
163.26683 105.0 
164.532394 376.0 
165.049103 120.0 
165.067932 243.0 
165.104858 746.0 
165.933395 164.0 
166.035919 55.0 
166.084915 338.0 
166.141754 171.0 
167.018402 130.0 
167.045349 115.0 
167.076935 909.0 
167.227249 84.0 
167.680054 64.0 
168.079849 6473.0 
168.205399 150.0 
168.710663 76.0 
168.773849 73.0 
168.818497 256.0 
169.076416 9751.0 
169.136642 194.0 
169.300766 62.0 
169.378906 78.0 
169.834915 115.0 
170.024139 239.0 
170.059601 20984.0 
170.43129 59.0 
170.744217 79.0 
170.810181 64.0 
171.091171 19625.0 
171.229324 115.0 
171.763901 84.0 
172.059708 509.0 
172.095108 1805.0 
172.315323 162.0 
172.367722 96.0 
173.053177 157.0 
173.242355 132.0 
174.121964 708.0 
177.057434 238.0 
177.176971 289.0 
178.190094 417.0 
178.221802 271.0 
179.050201 204.0 
180.077133 359.0 
181.070724 125.0 
181.09433 262.0 
182.060745 4008.0 
182.092712 1682.0 
182.127945 2334.0 
182.390671 108.0 
182.474487 52.0 
183.064972 813.0 
183.112244 9411.0 
183.21991 127.0 
183.472748 101.0 
184.076828 2005.0 
184.109543 855.0 
184.180145 212.0 
184.46637 90.0 
185.107254 20024.0 
185.391861 254.0 
185.418747 222.0 
185.482788 75.0 
186.05574 166.0 
186.08699 2240.0 
186.115387 3981.0 
186.47612 100.0 
186.830292 260.0 
186.998276 333.0 
187.025833 386.0 
187.086578 46093.0 
187.122147 556.0 
187.216721 95.0 
187.42897 71.0 
187.541367 140.0 
187.92627 240.0 
188.032227 171.0 
188.090042 4444.0 
188.139435 652.0 
188.623459 102.0 
188.94812 415.0 
189.094025 182.0 
189.143143 218.0 
189.418808 146.0 
189.91391 216.0 
190.008926 349.0 
190.082947 168.0 
190.486145 170.0 
190.80687 182.0 
192.75322 232.0 
193.215042 294.0 
194.234604 88.0 
194.686142 105.0 
195.090714 5064.0 
196.075699 1324.0 
196.108017 1595.0 
197.070679 488.0 
197.108414 3195.0 
198.081879 483.0 
198.113281 661.0 
198.910141 150.0 
199.08786 3918.0 
199.367828 133.0 
199.668884 178.0 
200.099289 2486.0 
200.140228 12643.0 
200.34726 129.0 
200.518326 106.0 
200.833893 81.0 
201.110672 191.0 
201.143188 1482.0 
202.105377 148.0 
203.418457 233.0 
204.112808 1541.0 
205.005508 215.0 
205.113617 287.0 
206.421997 263.0 
206.733994 236.0 
207.087814 159.0 
210.053284 147.0 
210.122925 5863.0 
210.571823 151.0 
211.093735 682.0 
211.129852 610.0 
212.063858 157.0 
212.105148 5323.0 
212.583221 201.0 
212.698959 147.0 
213.102615 12837.0 
213.13588 1052.0 
213.27832 310.0 
213.367126 236.0 
213.423248 77.0 
214.105637 1893.0 
214.130783 783.0 
215.078827 1196.0 
215.400192 114.0 
216.092209 102.0 
216.120407 206.0 
218.761063 217.0 
219.113708 286.0 
219.153854 224.0 
221.43811 320.0 
222.108765 223.0 
222.1465 201.0 
223.1185 188.0 
224.108444 747.0 
224.14827 101.0 
224.591843 142.0 
225.101532 1254.0 
225.822357 325.0 
226.102844 423.0 
226.130264 200.0 
226.156418 865.0 
227.084183 185.0 
227.564697 216.0 
227.718597 82.0 
227.861267 81.0 
227.929428 68.0 
228.021194 151.0 
228.065857 433.0 
228.134598 68269.0 
228.719681 128.0 
229.137802 5263.0 
229.828934 163.0 
230.129288 60966.0 
230.240326 67.0 
230.338669 67.0 
230.524902 126.0 
230.739792 107.0 
230.799698 147.0 
230.8423 112.0 
230.912476 112.0 
231.132568 6907.0 
231.735352 87.0 
232.138367 286.0 
232.751144 63.0 
234.095032 147.0 
236.12648 129.0 
236.23111 174.0 
237.139236 247.0 
237.382248 181.0 
238.076096 273.0 
238.118515 3490.0 
239.12114 524.0 
239.875214 327.0 
240.116318 1519.0 
240.654724 363.0 
240.833649 235.0 
241.032455 290.0 
241.096603 3414.0 
241.133698 920.0 
241.723999 59.0 
242.059326 125.0 
242.128952 9223.0 
243.131348 1230.0 
243.406799 65.0 
245.040573 136.0 
245.156265 406.0 
245.733597 256.0 
250.099731 158.0 
251.732819 110.0 
252.114594 298.0 
252.14119 277.0 
253.0952 2009.0 
253.252808 238.0 
254.087585 133.0 
254.112289 249.0 
254.151596 4541.0 
254.647202 72.0 
255.147873 1145.0 
255.189514 111.0 
256.131073 1458.0 
256.507202 121.0 
256.718231 140.0 
256.859222 52.0 
256.945953 192.0 
257.123474 927.0 
257.159546 559.0 
257.365112 96.0 
257.585846 313.0 
257.897278 61.0 
257.935822 89.0 
257.99585 254.0 
258.049683 513.0 
258.123932 72557.0 
258.16507 397.0 
258.226196 110.0 
258.541931 168.0 
258.772034 96.0 
258.963409 186.0 
259.126282 7744.0 
260.127655 107.0 
260.527405 173.0 
260.569397 91.0 
261.073578 197.0 
261.166779 135.0 
261.418457 353.0 
264.133759 161.0 
266.150055 654.0 
266.169403 722.0 
266.531708 208.0 
267.10611 408.0 
267.170197 255.0 
268.110748 706.0 
269.124664 545.0 
270.123535 36656.0 
270.161713 2647.0 
270.424774 204.0 
270.481598 237.0 
270.672546 161.0 
270.816193 167.0 
270.933014 218.0 
271.125763 4264.0 
271.176971 11189.0 
271.88562 184.0 
271.91745 64.0 
272.128113 275.0 
272.179291 1476.0 
273.782776 93.0 
274.182861 203.0 
274.339752 94.0 
275.146545 828.0 
278.148926 225.0 
278.165375 215.0 
279.139801 169.0 
280.102448 126.0 
281.118988 131.0 
281.160065 256.0 
282.141754 307.0 
282.84201 98.0 
283.152435 1027.0 
283.312012 85.0 
284.142853 1421.0 
284.17511 6432.0 
284.515106 192.0 
284.626282 142.0 
285.153687 1164.0 
285.179749 1132.0 
286.125214 98.0 
286.161285 149.0 
286.510559 135.0 
287.113586 162.0 
287.149994 781.0 
288.211395 166.0 
289.159668 231.0 
290.157715 128.0 
296.143829 355.0 
296.880981 79.0 
297.158295 2638.0 
298.119568 7762.0 
298.160065 1576.0 
299.120178 2448.0 
299.171692 52064.0 
299.911713 83.0 
300.068237 171.0 
300.122986 280.0 
300.175842 4351.0 
300.557983 69.0 
301.162201 121.0 
301.255676 170.0 
302.286743 98.0 
302.399658 182.0 
303.281494 198.0 
304.145782 135.0 
305.454773 213.0 
308.27655 83.0 
308.701935 68.0 
309.080933 161.0 
309.10672 152.0 
309.158905 2318.0 
310.037201 175.0 
310.151917 127.0 
311.170349 725.0 
312.100098 98.0 
312.17099 11141.0 
312.635712 95.0 
312.737732 133.0 
313.17276 1579.0 
313.239258 143.0 
313.59024 109.0 
314.158508 114.0 
314.202667 302.0 
314.323456 84.0 
314.854309 133.0 
315.013855 201.0 
315.145691 31260.0 
315.223297 274.0 
315.837585 104.0 
316.145386 3428.0 
316.247192 53.0 
316.796021 163.0 
323.155518 600.0 
324.006348 229.0 
324.133575 148.0 
324.165039 244.0 
325.170044 73.0 
326.131622 386.0 
326.180664 2764.0 
327.174622 539.0 
328.197906 2518.0 
328.255219 262.0 
328.401184 71.0 
329.108063 372.0 
329.160919 16997.0 
329.631714 91.0 
329.729034 122.0 
330.164764 2033.0 
330.492157 75.0 
330.676208 128.0 
331.421387 101.0 
332.167023 136.0 
336.079895 199.0 
336.191101 118.0 
338.185913 1067.0 
339.162567 619.0 
340.18512 326.0 
340.938812 336.0 
341.106995 183.0 
341.160126 5130.0 
341.196808 6703.0 
342.148743 382.0 
342.199158 774.0 
342.597137 154.0 
342.955139 107.0 
343.139679 2075.0 
344.119751 170.0 
349.188965 167.0 
350.18808 157.0 
351.141754 140.0 
351.183167 481.0 
352.17868 460.0 
355.218475 181.0 
356.191559 503.0 
356.627075 233.0 
357.11972 160.0 
357.155914 212.0 
357.192566 3346.0 
358.059784 318.0 
358.186035 5796.0 
358.853943 340.0 
359.188965 390.0 
361.332642 69.0 
367.113251 157.0 
367.178589 162.0 
368.155182 305.0 
368.204865 1513.0 
368.342712 146.0 
369.192108 24850.0 
369.614532 123.0 
370.195892 4905.0 
370.581116 82.0 
370.630554 181.0 
371.206726 191.0 
377.181793 347.0 
379.685242 163.0 
382.221466 148.0 
383.206238 5253.0 
384.020508 162.0 
384.207062 471.0 
384.328735 73.0 
385.181 236.0 
385.414795 72.0 
385.545746 131.0 
385.857971 151.0 
386.073151 260.0 
386.182465 44409.0 
386.217102 21841.0 
387.080353 114.0 
387.1409 351.0 
387.183167 5776.0 
387.21817 4337.0 
387.428101 85.0 
387.695435 129.0 
387.853882 134.0 
388.187927 351.0 
388.22406 234.0 
389.918091 66.0 
390.167328 156.0 
393.413116 112.0 
394.575165 238.0 
395.204834 348.0 
395.353546 168.0 
396.212921 493.0 
396.319885 146.0 
396.426636 91.0 
397.184998 1288.0 
397.828461 161.0 
398.161102 129.0 
400.237152 218.0 
401.221497 74.0 
401.804138 155.0 
412.231049 3307.0 
413.23642 1047.0 
414.175781 1437.0 
414.214081 16846.0 
415.154388 149.0 
415.21524 2217.0 
423.221222 138.0 
424.201355 299.0 
424.243958 355.0 
428.233246 560.0 
429.233795 472.0 
432.105743 147.0 
434.304108 55.0 
438.199463 192.0 
439.246094 1992.0 
439.746124 106.0 
439.951355 100.0 
440.147156 327.0 
440.230347 21232.0 
441.235229 3981.0 
442.208496 481.0 
442.262939 461.0 
443.213196 188.0 
444.711273 106.0 
450.681641 175.0 
455.021973 57.0 
455.866669 102.0 
456.163391 199.0 
456.214783 193.0 
456.659546 136.0 
457.141113 356.0 
457.169312 471.0 
457.256195 58434.0 
457.378906 83.0 
457.616058 175.0 
457.793457 167.0 
458.032867 115.0 
458.259583 9346.0 
458.635162 197.0 
459.27713 350.0 
459.671875 178.0 
460.462189 109.0 
460.782227 81.0 
462.320831 66.0 
467.236908 2524.0 
467.390686 197.0 
468.225922 2928.0 
469.151855 54.0 
469.242859 979.0 
470.100433 59.0 
472.858337 155.0 
479.733459 130.0 
481.008331 95.0 
483.569183 122.0 
484.385193 67.0 
484.46106 115.0 
484.772095 69.0 
484.892548 88.0 
485.088654 116.0 
485.251434 32639.0 
485.866028 66.0 
485.971191 96.0 
486.133331 203.0 
486.253418 6197.0 
487.237061 346.0 
487.290466 259.0 
487.715851 155.0 
488.314362 81.0 
489.063019 97.0 
489.111053 121.0 
506.79837 72.0 
567.591064 201.0 
613.724609 59.0 
663.834595 55.0 
726.256409 77.0 
790.322266 88.0 
793.554749 81.0 
1139.429443 234.0 
1366.844727 119.0 
1368.853516 188.0 
1383.941528 149.0 
1388.665039 338.0 
1426.522705 115.0 
1529.807373 259.0 
1532.93396 242.0 
1718.642822 167.0 
1725.982178 186.0 
1756.076904 278.0 
1808.043457 203.0 
1862.855347 186.0 
1926.2229 115.0 
1960.104492 163.0 
2000.794556 282.0 
END IONS

BEGIN IONS
TITLE=Scan Number: 23
PEPMASS=502.27701
CHARGE=1+
MSLEVEL=2
FILENAME=E11_GE11_01_2636.mzXML
INSTRUMENT=ion trap
SCANS=23
SMILES=CC(C)C1NC(=O)C(C)NC(=O)C(CC2=CNC3=C2C=CC=C3)NC(=O)C(C)NC(=O)CNC1=O
INCHIKEY=NYPFHMYOQFDZQG-UHFFFAOYSA-N
76.130142 124.0 
78.668388 373.0 
83.058029 126.0 
84.292145 166.0 
84.848831 205.0 
97.077271 148.0 
99.055298 6646.0 
99.550446 286.0 
100.056419 320.0 
100.81118 92.0 
101.069695 1237.0 
101.434212 111.0 
102.508598 211.0 
106.056602 85.0 
112.147331 299.0 
113.909004 275.0 
115.088066 165.0 
117.056686 130.0 
117.104836 182.0 
119.066727 172.0 
121.395241 230.0 
126.07412 345.0 
127.044273 217.0 
128.089905 203.0 
129.039047 632.0 
129.066055 3305.0 
129.10173 7786.0 
129.248428 145.0 
129.705566 90.0 
130.064651 19839.0 
130.225967 122.0 
130.333618 90.0 
131.068665 1376.0 
132.080597 13838.0 
133.078125 230.0 
135.267166 325.0 
135.400131 170.0 
137.073822 149.0 
137.862473 195.0 
138.052444 181.0 
138.272629 238.0 
139.059509 423.0 
141.064819 946.0 
141.103256 134.0 
141.707413 119.0 
142.029678 269.0 
142.066574 1093.0 
142.545822 176.0 
143.049301 132.0 
143.078033 549.0 
143.118805 780.0 
144.049103 243.0 
144.078766 2568.0 
145.082245 349.0 
147.084839 96.0 
149.780807 232.0 
152.082443 193.0 
153.06012 174.0 
154.06665 441.0 
155.08049 733.0 
155.117569 2349.0 
156.712082 137.0 
156.991653 203.0 
157.018936 165.0 
157.097504 3448.0 
158.097275 6076.0 
158.615723 237.0 
158.757919 171.0 
158.860428 117.0 
159.09166 58594.0 
159.368942 204.0 
159.613007 149.0 
160.09462 5829.0 
161.243835 179.0 
161.471771 152.0 
165.06131 213.0 
165.09848 359.0 
167.823257 93.0 
168.079483 727.0 
168.496277 141.0 
169.034714 120.0 
169.071198 1039.0 
169.128815 185.0 
170.059921 4983.0 
170.096161 356.0 
171.058914 624.0 
171.092453 3639.0 
172.090881 224.0 
173.056976 758.0 
173.341415 107.0 
175.050308 171.0 
178.290573 200.0 
180.08606 114.0 
182.061554 1451.0 
182.091812 190.0 
182.120926 154.0 
183.071411 356.0 
183.111359 1912.0 
184.069931 231.0 
184.117798 295.0 
184.152893 273.0 
184.816116 98.0 
184.843521 128.0 
185.073135 195.0 
185.107346 3634.0 
186.089706 331.0 
186.113968 371.0 
187.086395 11789.0 
187.122131 181.0 
188.087463 1126.0 
189.057587 171.0 
189.091232 182.0 
191.05188 265.0 
191.070541 484.0 
191.583359 326.0 
193.051178 94.0 
195.097366 267.0 
195.514893 136.0 
196.070679 684.0 
197.105438 897.0 
198.115585 245.0 
199.086731 1506.0 
199.152252 180.0 
199.823715 143.0 
200.072586 201.0 
200.097641 391.0 
200.139297 4655.0 
201.112717 478.0 
201.143723 814.0 
202.981293 111.0 
203.027084 92.0 
203.590668 352.0 
204.069489 156.0 
204.117416 216.0 
205.092148 220.0 
208.576111 343.0 
210.123245 1665.0 
210.480804 99.0 
210.999619 281.0 
211.075989 106.0 
211.113571 272.0 
212.106277 989.0 
212.317139 143.0 
213.074814 130.0 
213.098907 1586.0 
213.137421 365.0 
214.110336 532.0 
215.079773 112.0 
219.064789 182.0 
219.742966 129.0 
224.116959 464.0 
224.532822 256.0 
226.108994 217.0 
226.147751 208.0 
227.112411 128.0 
227.14827 154.0 
227.95575 303.0 
228.029373 204.0 
228.061172 146.0 
228.13475 16998.0 
229.092758 108.0 
229.138336 956.0 
230.03717 166.0 
230.059219 183.0 
230.129745 14572.0 
230.531448 182.0 
230.850677 90.0 
231.130981 2254.0 
232.994827 115.0 
233.079071 100.0 
235.061111 478.0 
236.083344 232.0 
238.122025 636.0 
240.098877 766.0 
240.119644 869.0 
240.286026 144.0 
241.096405 1612.0 
241.589767 253.0 
242.049072 373.0 
242.127518 2731.0 
243.126328 194.0 
244.092819 198.0 
245.092712 202.0 
248.03511 268.0 
248.10672 661.0 
248.609848 195.0 
252.054245 111.0 
252.13942 205.0 
253.096588 568.0 
254.157593 614.0 
255.148499 342.0 
256.061523 329.0 
256.141663 150.0 
257.119385 354.0 
257.167419 165.0 
257.437286 224.0 
258.059662 144.0 
258.12442 18666.0 
259.077271 286.0 
259.126343 1848.0 
260.062622 153.0 
262.105042 142.0 
262.623688 255.0 
263.070038 321.0 
265.163025 134.0 
266.079346 295.0 
266.148743 117.0 
266.845093 138.0 
267.147095 221.0 
267.81311 232.0 
267.959473 202.0 
268.067505 159.0 
268.130554 310.0 
269.122375 225.0 
270.124817 8178.0 
270.718445 225.0 
271.126068 1494.0 
271.175903 3394.0 
271.345306 87.0 
272.126068 203.0 
272.177368 118.0 
272.935913 86.0 
272.994965 155.0 
275.147919 784.0 
278.167542 141.0 
279.092743 185.0 
280.125061 689.0 
281.116425 232.0 
283.152679 417.0 
284.086456 156.0 
284.141296 257.0 
284.178528 2745.0 
285.175201 166.0 
286.09433 145.0 
287.158813 391.0 
288.087067 256.0 
289.084534 199.0 
292.594391 225.0 
293.089264 121.0 
294.916626 223.0 
295.133545 292.0 
296.77301 330.0 
297.022339 133.0 
297.130585 147.0 
298.11908 2044.0 
299.075836 181.0 
299.171753 17638.0 
300.169983 1018.0 
301.087341 167.0 
301.168335 104.0 
302.053589 193.0 
302.405243 153.0 
304.100739 153.0 
305.056641 263.0 
308.214935 106.0 
309.123077 170.0 
309.156311 622.0 
310.155701 277.0 
311.032806 237.0 
311.163391 490.0 
312.133392 172.0 
312.171173 2426.0 
313.132385 106.0 
313.173462 357.0 
313.581757 119.0 
314.14743 162.0 
315.145691 6865.0 
316.040649 198.0 
316.085297 163.0 
316.150391 1527.0 
317.889832 96.0 
318.091156 159.0 
325.140228 216.0 
326.17868 684.0 
327.093628 216.0 
327.207367 247.0 
328.199036 454.0 
329.162781 2467.0 
330.160645 221.0 
331.115326 164.0 
336.146851 155.0 
338.179504 442.0 
340.181305 256.0 
341.173096 1269.0 
342.152222 110.0 
343.141724 882.0 
344.145691 152.0 
345.121246 125.0 
346.13147 210.0 
347.571747 197.0 
350.096497 207.0 
351.139893 369.0 
351.17395 243.0 
352.106232 105.0 
356.12442 173.0 
356.184937 439.0 
357.112396 99.0 
357.19458 368.0 
358.190247 1935.0 
359.183258 297.0 
361.666534 183.0 
366.628357 233.0 
367.143921 255.0 
368.19162 751.0 
369.191132 4454.0 
370.190704 1265.0 
371.028412 199.0 
371.113251 333.0 
372.154572 176.0 
373.33194 100.0 
378.144135 119.0 
382.215363 155.0 
383.205261 1286.0 
383.617767 352.0 
384.525116 224.0 
386.092773 250.0 
386.118073 275.0 
386.182892 15179.0 
386.21814 5698.0 
386.896881 217.0 
387.053497 140.0 
387.186676 1749.0 
388.184418 126.0 
395.205933 205.0 
396.146545 180.0 
397.179932 697.0 
397.549927 220.0 
398.122772 123.0 
400.244598 110.0 
400.471039 192.0 
406.143799 253.0 
412.148895 375.0 
412.194275 276.0 
412.239532 988.0 
413.243347 202.0 
414.214752 5054.0 
415.212891 966.0 
416.212646 106.0 
422.22821 107.0 
423.25119 218.0 
424.160492 163.0 
425.078827 329.0 
428.79187 184.0 
433.182037 249.0 
437.18866 170.0 
438.905487 184.0 
439.242035 453.0 
440.230469 6418.0 
440.675781 108.0 
441.24173 1329.0 
442.090515 364.0 
442.226501 471.0 
444.052429 162.0 
446.196442 159.0 
451.012543 88.0 
454.709869 112.0 
455.211365 169.0 
455.791809 115.0 
456.713715 159.0 
456.847382 92.0 
456.957367 198.0 
457.14032 113.0 
457.1828 512.0 
457.256378 24957.0 
457.330597 262.0 
458.193634 130.0 
458.258179 4855.0 
459.276978 127.0 
460.528076 89.0 
461.181763 92.0 
461.299561 87.0 
464.673737 133.0 
467.236176 759.0 
467.284393 144.0 
468.186676 245.0 
468.23877 900.0 
474.056488 90.0 
481.717499 253.0 
483.666626 137.0 
485.08905 251.0 
485.155426 571.0 
485.251312 23823.0 
485.562408 242.0 
486.253998 7438.0 
487.263794 170.0 
490.504028 229.0 
495.188751 131.0 
495.221436 230.0 
502.304413 155.0 
504.22406 3671.0 
504.304565 109.0 
504.730347 385.0 
521.785278 204.0 
523.194946 336.0 
541.217285 368.0 
626.2323 110.0 
1567.036743 335.0 
1753.211182 190.0 
END IONS

BEGIN IONS
TITLE=Scan Number: 24
PEPMASS=806.14099
CHARGE=1+
MSLEVEL=2
FILENAME=E11_GE11_01_2636.mzXML
INSTRUMENT=ion trap
SCANS=24
SMILES=O[C@H]1[C@H](OC(=O)C2=CC(O)=C(O)C(O)=C2)O[C@H](COC(=O)C3=CC(O)=C(O)C(O)=C3)[C@@H](OC(=O)C4=CC(O)=C(O)C(O)=C4)[C@@H]1OC(=O)C5=CC(O)=C(O)C(O)=C5
INCHIKEY=NRQJFEDEWHTAPZ-UGUGPVJNSA-N
79.019226 243.0 
105.291725 170.0 
108.044388 598.0 
109.029366 637.0 
110.478661 237.0 
127.039711 160.0 
143.012085 148.0 
143.03299 680.0 
152.775574 243.0 
152.963211 186.0 
153.018082 62163.0 
153.369843 120.0 
154.022354 6328.0 
154.189163 122.0 
155.079239 133.0 
159.043991 221.0 
167.033401 170.0 
176.068466 300.0 
177.053589 462.0 
181.014648 153.0 
184.00528 143.0 
189.045959 119.0 
191.017853 121.0 
197.009521 184.0 
205.058258 203.0 
207.030502 177.0 
208.964905 212.0 
210.059036 301.0 
213.038406 151.0 
215.033615 283.0 
216.379791 240.0 
217.047775 115.0 
218.052444 453.0 
221.04921 243.0 
226.986313 593.0 
233.046494 330.0 
237.037033 202.0 
243.029129 149.0 
243.056854 200.0 
243.967926 137.0 
244.997955 788.0 
249.037033 130.0 
261.012482 213.0 
261.039703 1900.0 
262.045166 300.0 
263.02124 260.0 
265.108063 115.0 
267.050354 105.0 
270.077454 171.0 
273.528046 110.0 
279.050385 2748.0 
279.284058 153.0 
279.376038 96.0 
280.051422 133.0 
281.022034 192.0 
281.593323 225.0 
297.059113 295.0 
305.015167 328.0 
306.033264 205.0 
310.046783 138.0 
317.001129 308.0 
325.041321 285.0 
335.015106 247.0 
348.013824 123.0 
361.00708 168.0 
397.011719 228.0 
432.071106 184.0 
449.075043 2035.0 
450.074554 184.0 
467.084167 212.0 
468.995209 100.0 
481.030914 130.0 
486.999573 112.0 
497.198853 179.0 
505.026367 160.0 
517.020935 775.0 
535.033569 95.0 
544.135315 182.0 
548.957336 207.0 
559.564575 255.0 
601.094421 147.0 
619.008057 202.0 
619.097351 4509.0 
620.03595 135.0 
620.103577 593.0 
621.105591 162.0 
645.087463 437.0 
657.038879 109.0 
668.976562 152.0 
670.036072 160.0 
675.050293 306.0 
687.046936 196.0 
688.053772 258.0 
689.053162 173.0 
771.212952 130.0 
1059.189453 349.0 
1994.759888 423.0 
END IONS

BEGIN IONS
TITLE=Scan Number: 25
PEPMASS=229.10699
CHARGE=1+
MSLEVEL=2
FILENAME=E6_RE6_01_2940.mzXML
INSTRUMENT=ion trap
SCANS=25
SMILES=CCC[C@@H](O)[C@H](O)C1=CC(OC)=CC(=O)O1
INCHIKEY=IQQUGRMXXJTLNW-KCJUWKMLSA-N
79.019035 213.0 
93.033768 145.0 
93.070877 261.0 
95.051689 247.0 
97.026764 357.0 
99.04467 230.0 
99.163673 140.0 
101.051582 143.0 
105.047264 197.0 
108.07959 291.0 
111.043541 1481.0 
112.047081 130.0 
115.056168 197.0 
116.76857 146.0 
124.039223 114.0 
125.022675 4106.0 
126.025291 227.0 
126.779678 66.0 
127.039017 790.0 
133.060883 467.0 
135.042389 275.0 
137.054901 155.0 
137.098572 125.0 
139.037613 302.0 
140.044571 155.0 
141.053528 664.0 
142.027588 223.0 
142.058304 161.0 
150.699646 72.0 
153.055725 581.0 
155.031738 490.0 
157.04863 1446.0 
167.102081 70.0 
193.082657 495.0 
211.103317 386.0 
229.107315 178.0 
END IONS

BEGIN IONS
TITLE=Scan Number: 26
PEPMASS=246.134
CHARGE=1+
MSLEVEL=2
FILENAME=E6_RE6_01_2940.mzXML
INSTRUMENT=ion trap
SCANS=26
SMILES=CCC[C@@H](O)[C@H](O)C1=CC(OC)=CC(=O)O1
INCHIKEY=IQQUGRMXXJTLNW-KCJUWKMLSA-N
71.013191 188.0 
77.039154 124.0 
78.550667 100.0 
80.014221 152.0 
81.033371 150.0 
81.06839 200.0 
83.050903 256.0 
85.02803 157.0 
85.063179 135.0 
86.065315 191.0 
91.051826 182.0 
94.038383 287.0 
95.012238 148.0 
95.047707 539.0 
96.02108 159.0 
97.02375 422.0 
99.044388 1266.0 
105.918602 290.0 
107.010567 344.0 
109.02401 302.0 
110.033554 99.0 
111.043602 4816.0 
112.951775 137.0 
113.057899 194.0 
117.063797 212.0 
123.044434 159.0 
124.987648 196.0 
125.022804 22473.0 
125.059738 385.0 
126.024269 929.0 
127.037773 1315.0 
128.045441 216.0 
129.058533 696.0 
133.098282 136.0 
135.080322 189.0 
137.016022 77.0 
137.057922 679.0 
137.088745 167.0 
138.056793 246.0 
139.039474 2867.0 
139.108047 145.0 
140.046066 305.0 
141.053146 3841.0 
142.059433 219.0 
143.013626 125.0 
150.304642 225.0 
153.051682 1447.0 
153.321548 139.0 
154.058609 100.0 
155.034531 1987.0 
156.041656 1424.0 
157.048431 7819.0 
158.054489 362.0 
165.093475 398.0 
167.064743 182.0 
170.008133 185.0 
179.071381 144.0 
183.101074 324.0 
184.081436 167.0 
187.002335 132.0 
193.084015 1805.0 
194.0858 89.0 
197.08107 153.0 
205.733719 265.0 
211.031937 304.0 
211.095184 9120.0 
212.099518 807.0 
213.893951 106.0 
229.10556 6100.0 
230.067749 165.0 
230.106583 595.0 
246.115845 197.0 
1794.241821 141.0 
END IONS

BEGIN IONS
TITLE=Scan Number: 27
PEPMASS=329.138
CHARGE=1+
MSLEVEL=2
FILENAME=E6_RE6_01_2940.mzXML
INSTRUMENT=ion trap
SCANS=27
SMILES=CC1CC(=O)C2=C(CCC3(O)C(O)C4=C(C=CC=C4O)C(=O)C23)C1
INCHIKEY=CRULJZWXPCYLAC-UHFFFAOYSA-N
70.0839 60.0 
71.04837 185.0 
71.966415 352.0 
73.180023 259.0 
73.508858 88.0 
75.96669 263.0 
76.821426 134.0 
77.034752 261.0 
78.041695 427.0 
78.17672 52.0 
79.037445 146.0 
79.053932 386.0 
80.053658 181.0 
80.488518 307.0 
80.557426 154.0 
81.0718 594.0 
81.286545 150.0 
81.80809 321.0 
83.047256 392.0 
83.508377 161.0 
84.53199 210.0 
84.605804 173.0 
85.066437 471.0 
90.014793 115.0 
91.054245 2030.0 
91.814247 228.0 
92.047531 285.0 
92.078201 268.0 
92.220154 59.0 
92.387054 225.0 
93.034676 1631.0 
93.069908 976.0 
94.682594 201.0 
95.050659 725.0 
95.084282 379.0 
96.059151 218.0 
96.083389 163.0 
98.060402 281.0 
99.752213 588.0 
103.053268 1772.0 
103.101738 211.0 
103.752762 263.0 
103.975723 244.0 
105.033646 8030.0 
105.07019 2910.0 
106.038719 543.0 
106.052834 511.0 
106.074615 162.0 
107.048409 4125.0 
108.053902 468.0 
108.081139 313.0 
109.12648 150.0 
109.394417 287.0 
109.80938 57.0 
111.000359 253.0 
111.043724 529.0 
111.078094 527.0 
113.039085 179.0 
114.452888 162.0 
114.759247 147.0 
115.053902 1332.0 
115.565018 215.0 
116.060783 362.0 
117.037369 269.0 
117.068848 1006.0 
118.042038 235.0 
118.34848 250.0 
119.047684 1396.0 
119.086151 898.0 
119.135277 233.0 
120.057259 660.0 
120.561867 251.0 
121.028221 20935.0 
121.064941 881.0 
121.087204 136.0 
121.520088 149.0 
122.030869 1366.0 
122.945663 280.0 
123.026657 164.0 
123.04451 192.0 
123.076233 257.0 
124.457466 174.0 
125.641846 134.0 
126.280769 269.0 
126.671738 154.0 
127.054466 241.0 
127.683006 120.0 
128.062469 2174.0 
129.033844 124.0 
129.068466 1724.0 
129.891708 224.0 
130.077164 188.0 
130.543564 174.0 
131.049011 1964.0 
131.083771 1112.0 
131.397812 178.0 
132.05925 176.0 
132.091568 138.0 
132.254639 190.0 
132.498337 191.0 
132.751511 209.0 
133.006927 436.0 
133.027573 3689.0 
133.06398 963.0 
134.033752 865.0 
134.273468 146.0 
134.904999 63.0 
135.046539 1617.0 
135.081604 1411.0 
137.094009 539.0 
138.218033 193.0 
138.620163 146.0 
139.053711 242.0 
141.069 978.0 
141.252914 84.0 
141.446075 238.0 
142.076355 301.0 
143.05423 310.0 
143.084869 2080.0 
144.053757 521.0 
144.095062 457.0 
145.002762 307.0 
145.029144 307.0 
145.065765 3479.0 
145.102158 899.0 
146.069702 586.0 
146.117889 248.0 
147.044708 1656.0 
147.079498 697.0 
147.3564 119.0 
147.99791 194.0 
148.043365 117.0 
148.168106 89.0 
148.563187 54.0 
148.642548 240.0 
148.986572 171.0 
149.023026 22608.0 
149.056396 364.0 
149.097443 899.0 
149.135345 145.0 
149.235306 131.0 
150.023514 822.0 
150.143814 175.0 
150.459152 383.0 
150.693619 76.0 
151.03804 10135.0 
152.061401 7313.0 
152.09201 117.0 
153.068176 3500.0 
153.466476 347.0 
154.044037 156.0 
154.074341 1019.0 
154.162979 226.0 
155.062988 2142.0 
155.084808 2635.0 
156.089539 530.0 
156.131287 271.0 
157.063858 3344.0 
157.092163 165.0 
158.066666 283.0 
158.105652 110.0 
158.184982 277.0 
158.279968 82.0 
158.485962 180.0 
158.762802 194.0 
159.013245 89.0 
159.044968 5462.0 
159.079315 714.0 
160.048737 552.0 
160.080124 321.0 
160.514954 176.0 
161.057938 1904.0 
161.095963 3714.0 
161.772507 136.0 
162.061966 179.0 
162.097931 993.0 
162.190521 59.0 
162.877304 70.0 
163.018326 308.0 
163.037704 1927.0 
163.110245 718.0 
163.234833 404.0 
163.61496 176.0 
164.035492 143.0 
164.113831 244.0 
165.034698 324.0 
165.068604 4797.0 
165.116821 132.0 
166.07663 2259.0 
167.051025 180.0 
167.084152 8643.0 
168.014862 104.0 
168.056335 710.0 
168.091156 1074.0 
169.063751 3364.0 
169.481735 110.0 
169.983612 155.0 
170.064484 850.0 
170.158585 199.0 
171.037369 189.0 
171.079193 1703.0 
172.044235 146.0 
172.085342 92.0 
172.530029 88.0 
173.02449 214.0 
173.057358 2879.0 
173.09111 349.0 
174.061172 232.0 
174.662033 87.0 
174.97377 231.0 
175.037216 4950.0 
175.07457 461.0 
176.037415 574.0 
176.063431 1798.0 
177.068512 3903.0 
178.074921 3303.0 
179.003555 241.0 
179.085403 3169.0 
180.058167 887.0 
180.093796 874.0 
181.064133 9735.0 
181.09787 1254.0 
181.164459 181.0 
181.443741 78.0 
182.043686 465.0 
182.071579 5826.0 
182.114075 229.0 
183.078735 1345.0 
184.048721 144.0 
184.081177 178.0 
184.63765 208.0 
185.060776 2287.0 
185.096359 489.0 
186.065659 536.0 
186.094299 192.0 
186.312592 285.0 
187.032944 151.0 
187.07515 1109.0 
188.054932 224.0 
188.071411 241.0 
188.093124 278.0 
189.055054 5487.0 
189.092758 875.0 
189.144714 60.0 
189.624603 101.0 
190.075439 2057.0 
191.082001 1320.0 
191.206055 478.0 
191.318634 139.0 
192.089798 513.0 
192.423401 166.0 
193.062241 1992.0 
193.103836 137.0 
193.556534 128.0 
194.072662 6465.0 
194.107513 231.0 
194.571289 121.0 
195.079514 22632.0 
195.118958 578.0 
195.207367 148.0 
195.912216 307.0 
196.050919 442.0 
196.084122 6032.0 
196.684555 57.0 
197.057693 3280.0 
197.097473 2365.0 
197.134277 250.0 
197.398758 287.0 
198.062347 2190.0 
198.36879 121.0 
199.032318 548.0 
199.074066 2712.0 
199.627457 112.0 
200.077377 367.0 
201.053055 1506.0 
201.091507 276.0 
201.642944 108.0 
202.070007 1036.0 
203.048828 335.0 
203.086548 3235.0 
203.189514 325.0 
204.091644 4201.0 
204.454712 54.0 
205.063782 3162.0 
205.097137 2934.0 
205.261978 224.0 
205.413544 63.0 
205.43187 103.0 
205.531403 68.0 
205.681671 181.0 
205.894073 149.0 
206.075821 1638.0 
206.101181 1153.0 
207.044296 214.0 
207.078339 3995.0 
207.114243 609.0 
207.620804 106.0 
208.052155 1321.0 
208.090561 2607.0 
209.059067 12588.0 
209.094543 940.0 
209.12944 430.0 
209.540527 164.0 
210.066299 11765.0 
210.100998 342.0 
210.322571 136.0 
210.579407 96.0 
211.018463 174.0 
211.071487 2968.0 
211.110565 236.0 
212.029236 215.0 
212.077042 753.0 
213.054123 10012.0 
213.089905 896.0 
213.18541 51.0 
213.994141 151.0 
214.059357 2721.0 
215.040833 194.0 
215.080566 3440.0 
215.403519 153.0 
215.571701 164.0 
216.092911 626.0 
216.434631 145.0 
217.057877 517.0 
217.096909 848.0 
218.070053 1804.0 
218.117538 844.0 
218.909973 230.0 
218.953476 253.0 
219.044647 327.0 
219.079208 2601.0 
219.116516 3298.0 
219.703094 205.0 
220.051102 459.0 
220.086319 1016.0 
220.12764 701.0 
221.059998 6537.0 
221.091232 1857.0 
221.132126 461.0 
221.763474 200.0 
222.065521 3188.0 
222.1026 2238.0 
222.241699 109.0 
222.90892 109.0 
222.974075 213.0 
223.074341 64668.0 
223.112076 2848.0 
223.153961 245.0 
223.388611 245.0 
223.586563 88.0 
223.616318 79.0 
224.030396 416.0 
224.080399 10145.0 
225.051697 3413.0 
225.087357 2184.0 
225.127029 443.0 
225.379166 54.0 
225.66301 186.0 
225.827728 165.0 
226.034729 559.0 
226.062775 6067.0 
227.068726 9580.0 
227.132065 399.0 
228.024033 289.0 
228.075912 6375.0 
228.915726 135.0 
229.006149 155.0 
229.099808 6344.0 
230.102325 912.0 
230.897461 196.0 
231.037292 111.0 
231.078751 5209.0 
232.053497 529.0 
232.086609 10755.0 
232.215775 306.0 
232.415848 139.0 
233.063995 2559.0 
233.096207 7226.0 
233.315567 124.0 
233.835526 134.0 
233.91748 135.0 
234.067062 2197.0 
234.103806 1794.0 
234.179565 81.0 
234.954773 73.0 
235.072739 2720.0 
235.110123 1043.0 
236.047546 364.0 
236.082611 5156.0 
236.121857 295.0 
236.217209 184.0 
237.051651 2513.0 
237.090286 2906.0 
237.125565 2528.0 
238.059555 1646.0 
238.096512 450.0 
238.130386 481.0 
238.944962 59.0 
239.068222 3171.0 
239.111237 473.0 
239.14119 291.0 
240.075897 2951.0 
241.0513 1903.0 
241.084747 9838.0 
241.118042 1407.0 
241.165848 186.0 
241.972412 77.0 
242.087769 1910.0 
242.129669 369.0 
242.418289 93.0 
243.073456 742.0 
244.378418 63.0 
245.055603 394.0 
245.09169 1424.0 
246.06044 731.0 
246.095352 536.0 
246.792786 293.0 
247.03894 145.0 
247.073914 1857.0 
247.111176 14872.0 
247.203903 328.0 
247.616302 175.0 
248.079926 1611.0 
248.115295 3767.0 
248.339218 102.0 
248.541855 82.0 
249.090103 8318.0 
249.123947 2192.0 
249.621445 160.0 
249.970657 60.0 
250.063034 1177.0 
250.097748 5381.0 
251.029968 218.0 
251.069382 5758.0 
251.105392 10342.0 
252.074005 2225.0 
252.109558 2343.0 
252.678696 218.0 
253.047058 196.0 
253.08638 1073.0 
254.022446 108.0 
254.064636 202.0 
254.093933 1367.0 
254.133743 261.0 
255.065796 3751.0 
255.097687 856.0 
255.138397 819.0 
256.068512 946.0 
256.098022 496.0 
256.136139 107.0 
257.039581 293.0 
257.094299 2173.0 
258.065094 267.0 
258.099915 2242.0 
259.021942 232.0 
259.075439 2072.0 
259.116486 212.0 
260.082031 7717.0 
260.766815 88.0 
261.087067 2777.0 
262.058441 365.0 
262.094635 998.0 
262.884399 156.0 
263.07132 5897.0 
263.663116 92.0 
264.077148 4306.0 
264.112915 1440.0 
265.039856 365.0 
265.076324 1539.0 
265.121368 19179.0 
265.196625 138.0 
265.339539 167.0 
265.68399 167.0 
266.083923 393.0 
266.124207 3121.0 
266.268768 95.0 
267.053284 193.0 
267.101593 2320.0 
267.136414 11337.0 
268.101105 735.0 
268.144928 1516.0 
269.078217 257.0 
269.112579 1173.0 
269.249084 99.0 
270.084778 311.0 
270.121735 450.0 
272.575317 263.0 
273.087128 211.0 
274.096558 404.0 
274.990875 168.0 
275.040131 210.0 
275.10614 21091.0 
275.434814 79.0 
276.111206 6547.0 
277.083069 2700.0 
277.115021 476.0 
277.16272 180.0 
277.940552 89.0 
277.992981 170.0 
278.049957 189.0 
278.094757 6443.0 
278.781952 135.0 
279.094147 2002.0 
280.10025 128.0 
281.076447 159.0 
282.081879 222.0 
282.123627 791.0 
283.095581 3753.0 
283.132294 7562.0 
283.897095 101.0 
284.091431 104.0 
284.134399 1234.0 
286.046631 145.0 
291.104645 558.0 
291.517456 50.0 
291.79599 79.0 
291.928558 378.0 
292.11084 451.0 
292.166504 167.0 
292.274994 174.0 
292.307098 97.0 
292.746857 139.0 
292.844147 91.0 
292.986115 132.0 
293.11618 114200.0 
293.1745 99.0 
293.326294 72.0 
293.383759 51.0 
293.451019 76.0 
293.639984 92.0 
293.733063 134.0 
294.026917 72.0 
294.121155 17599.0 
294.242188 99.0 
294.78952 60.0 
295.092865 164.0 
295.125946 597.0 
295.805115 57.0 
296.011841 64.0 
296.100555 765.0 
296.159515 218.0 
296.255341 101.0 
296.339783 108.0 
296.374268 134.0 
296.420197 65.0 
296.845123 90.0 
296.886444 164.0 
297.110016 132.0 
297.197113 116.0 
297.265137 113.0 
305.527283 128.0 
306.57782 190.0 
306.689545 193.0 
307.116241 107.0 
307.841309 240.0 
308.455719 231.0 
309.094269 67.0 
309.121796 144.0 
310.114197 231.0 
310.32486 186.0 
310.350952 159.0 
310.496979 317.0 
310.601044 217.0 
310.984436 295.0 
311.127625 163018.0 
311.24884 111.0 
311.273499 128.0 
311.428864 148.0 
311.567383 131.0 
311.644775 109.0 
311.854126 78.0 
311.945831 211.0 
312.052338 362.0 
312.130524 18171.0 
312.274109 104.0 
312.332642 95.0 
312.57196 84.0 
313.123901 199.0 
313.707611 151.0 
314.113373 136.0 
314.357117 141.0 
314.385742 122.0 
314.468903 262.0 
315.166992 144.0 
315.486816 183.0 
329.13736 2765.0 
329.192596 154.0 
383.838287 94.0 
389.153595 79.0 
421.155762 73.0 
501.977173 59.0 
1101.902222 133.0 
1681.057617 77.0 
1871.860352 214.0 
1878.119263 279.0 
END IONS

BEGIN IONS
TITLE=Scan Number: 28
PEPMASS=471.24301
CHARGE=1+
MSLEVEL=2
FILENAME=E6_RE6_01_2940.mzXML
INSTRUMENT=ion trap
SCANS=28
SMILES=CC(C)CCC(O)CCO[C@@H]1O[C@H](CO)[C@@H](O)[C@H](O)[C@H]1O[C@@H]2O[C@H](CO)[C@@H](O)[C@H](O)[C@H]2O
INCHIKEY=OCLJUQSRRLIINU-CBMLQZBESA-N
70.072273 1111.0 
70.61026 88.0 
71.049744 253.0 
73.027382 806.0 
74.032188 139.0 
81.032486 3500.0 
82.035629 243.0 
82.25106 231.0 
83.012428 133.0 
83.08519 5505.0 
84.087036 369.0 
84.454933 65.0 
84.718636 244.0 
85.027748 26758.0 
85.100044 1820.0 
85.131844 100.0 
86.011955 180.0 
86.029137 103.0 
87.041939 1487.0 
91.039413 1254.0 
95.092041 254.0 
96.971718 121.0 
97.028519 8116.0 
98.031227 122.0 
99.019836 195.0 
99.042191 2251.0 
100.276398 105.0 
101.021881 1289.0 
101.06881 323.0 
103.039314 761.0 
108.885567 109.0 
109.028442 3310.0 
109.066856 201.0 
110.030586 629.0 
110.569481 156.0 
111.042656 161.0 
111.116257 19163.0 
111.500755 310.0 
112.120201 1601.0 
115.03875 1199.0 
127.03878 11904.0 
128.041962 487.0 
129.024628 201.0 
129.093765 141.0 
129.126999 36406.0 
129.18544 79.0 
129.312363 71.0 
129.340454 93.0 
130.12883 1655.0 
131.319885 94.0 
144.064651 172.0 
145.049271 19377.0 
145.178101 97.0 
146.052673 696.0 
146.892838 145.0 
147.136963 26578.0 
147.350098 85.0 
147.894379 94.0 
148.140228 2496.0 
149.297165 76.0 
151.039825 338.0 
155.05603 125.0 
157.06105 139.0 
162.182617 182.0 
163.058578 5533.0 
164.064072 482.0 
170.079681 138.0 
177.078766 317.0 
181.06929 196.0 
193.052521 133.0 
199.0289 85.0 
205.013824 208.0 
205.072464 98.0 
211.060455 167.0 
225.144501 160.0 
236.036713 99.0 
241.131607 252.0 
253.078537 126.0 
255.114288 197.0 
271.078674 209.0 
289.087494 265.0 
291.214447 98.0 
309.18811 306.0 
325.1138 1178.0 
326.084442 156.0 
328.198944 124.0 
375.111053 142.0 
412.68808 176.0 
428.207123 189.0 
842.391479 117.0 
893.883667 211.0 
1204.516846 246.0 
1314.95874 179.0 
1426.296387 275.0 
1738.244263 206.0 
1857.997681 151.0 
1871.993408 208.0 
1940.476929 370.0 
1960.284302 200.0 
END IONS

BEGIN IONS
TITLE=Scan Number: 30
PEPMASS=717.14502
CHARGE=1+
MSLEVEL=2
FILENAME=E6_RE6_01_2940.mzXML
INSTRUMENT=ion trap
SCANS=30
SMILES=OC(=O)[C@@H](CC1=CC=C(O)C(O)=C1)OC(=O)\C=C\C2=CC(O)=C3OC(=C(C(=O)O[C@H](CC4=CC(O)=C(O)C=C4)C(O)=O)C3=C2)C5=CC(O)=C(O)C=C5
INCHIKEY=KROVXXIIXUFKOO-NGJWAYPNSA-N
75.94178 137.0 
111.045074 259.0 
135.042435 112.0 
137.098831 132.0 
139.039246 804.0 
148.082275 126.0 
157.051682 168.0 
163.0392 929.0 
173.025665 159.0 
181.050552 571.0 
183.145889 111.0 
193.164612 225.0 
201.106354 196.0 
223.276337 161.0 
232.169998 246.0 
237.059586 152.0 
264.914978 285.0 
265.05542 208.0 
275.047791 164.0 
279.054016 146.0 
293.04953 356.0 
302.129883 112.0 
315.02594 77.0 
315.162109 90.0 
321.037506 10162.0 
322.040497 3570.0 
323.065399 412.0 
339.009521 242.0 
339.053284 1656.0 
340.040741 123.0 
356.194244 197.0 
357.148865 182.0 
376.216248 182.0 
378.168671 131.0 
383.12619 207.0 
402.078918 174.0 
413.002106 231.0 
419.327881 180.0 
423.246246 121.0 
431.033417 182.0 
503.27182 133.0 
519.040222 143.0 
519.093262 1990.0 
520.09668 996.0 
521.095093 132.0 
557.70166 213.0 
652.140869 119.0 
701.32843 109.0 
717.344666 214.0 
718.259766 168.0 
764.369934 178.0 
833.360535 287.0 
919.070923 90.0 
1250.591309 101.0 
END IONS

BEGIN IONS
TITLE=Scan Number: 31
PEPMASS=734.172
CHARGE=1+
MSLEVEL=2
FILENAME=E6_RE6_01_2940.mzXML
INSTRUMENT=ion trap
SCANS=31
SMILES=OC(=O)[C@@H](CC1=CC=C(O)C(O)=C1)OC(=O)\C=C\C2=CC(O)=C3OC(=C(C(=O)O[C@H](CC4=CC(O)=C(O)C=C4)C(O)=O)C3=C2)C5=CC(O)=C(O)C=C5
INCHIKEY=KROVXXIIXUFKOO-NGJWAYPNSA-N
77.814064 270.0 
85.076202 200.0 
86.093102 224.0 
88.505493 255.0 
89.901581 134.0 
95.832809 176.0 
111.044022 456.0 
116.069397 127.0 
119.045349 343.0 
119.085289 138.0 
127.094246 213.0 
135.045181 2506.0 
137.563263 361.0 
139.012741 247.0 
139.038574 5895.0 
140.04335 883.0 
140.487427 257.0 
141.040298 98.0 
147.075119 106.0 
156.399765 134.0 
162.154465 199.0 
163.038101 2168.0 
164.043335 212.0 
165.416534 123.0 
179.757446 207.0 
181.02562 315.0 
181.048813 1180.0 
182.053101 361.0 
185.925583 171.0 
191.049545 156.0 
198.039383 224.0 
206.777771 200.0 
211.139114 166.0 
219.04216 108.0 
221.065384 135.0 
221.710068 123.0 
225.047256 248.0 
226.263565 111.0 
228.145264 183.0 
237.056473 406.0 
242.652069 265.0 
249.050797 169.0 
263.197784 111.0 
265.046417 1199.0 
266.049438 322.0 
271.833923 176.0 
275.034851 764.0 
291.35144 92.0 
292.026611 123.0 
293.039703 1701.0 
294.042511 1044.0 
295.051941 255.0 
296.064758 122.0 
302.96048 177.0 
303.032776 442.0 
306.628906 245.0 
315.893829 141.0 
316.731873 105.0 
316.986115 149.0 
318.1091 222.0 
320.016754 85.0 
320.745728 162.0 
321.038666 131328.0 
321.104492 289.0 
321.643311 177.0 
321.723999 115.0 
321.821747 82.0 
321.973999 117.0 
322.041351 20503.0 
322.107086 117.0 
323.046082 1925.0 
323.757446 148.0 
324.045593 133.0 
324.086761 95.0 
324.189789 92.0 
324.237335 93.0 
324.429352 141.0 
324.518066 100.0 
324.850281 92.0 
325.267151 79.0 
338.025818 102.0 
338.971863 122.0 
339.049042 9199.0 
340.048462 1042.0 
341.061615 457.0 
342.752075 117.0 
343.949432 90.0 
371.224182 106.0 
377.245636 141.0 
392.595612 171.0 
403.108063 270.0 
407.112213 205.0 
455.08374 250.0 
476.107391 161.0 
491.100494 107.0 
492.699127 193.0 
501.083893 116.0 
510.338013 158.0 
519.003418 192.0 
519.091675 13191.0 
520.10321 2321.0 
526.314636 163.0 
548.323303 131.0 
614.323669 124.0 
629.477966 147.0 
631.36261 151.0 
663.240295 171.0 
717.149597 110.0 
717.419067 194.0 
733.104431 126.0 
733.338074 168.0 
733.395203 116.0 
736.398132 247.0 
1036.449585 164.0 
END IONS

BEGIN IONS
TITLE=Scan Number: 35
PEPMASS=324.14401
CHARGE=1+
MSLEVEL=2
FILENAME=G7_RG7_01_2953.mzXML
INSTRUMENT=ion trap
SCANS=35
SMILES=CC1CCCC2OC2C(=O)C3=C(CC(=O)O1)C=C(O)C=C3O
INCHIKEY=BVDHPBILFRQGEC-UHFFFAOYSA-N
73.57119 299.0 
81.068924 363.0 
85.063576 997.0 
85.895409 176.0 
86.318596 101.0 
89.033989 250.0 
90.027397 181.0 
91.054863 717.0 
92.046722 314.0 
93.05632 117.0 
94.066147 208.0 
95.047592 623.0 
97.27906 264.0 
97.505287 342.0 
103.049423 177.0 
105.043999 884.0 
108.044601 211.0 
109.064377 277.0 
110.056557 139.0 
111.035965 207.0 
113.295135 298.0 
115.052086 254.0 
117.066681 175.0 
118.063622 1400.0 
118.392685 286.0 
119.037666 193.0 
119.07399 201.0 
120.043968 2941.0 
121.028595 1521.0 
121.039642 1385.0 
122.029724 177.0 
127.074471 414.0 
128.064514 401.0 
128.502136 217.0 
129.050812 184.0 
129.067322 208.0 
130.063202 1797.0 
131.069809 435.0 
132.081802 213.0 
133.052979 93.0 
134.06192 517.0 
135.030945 101.0 
136.078506 109.0 
137.045395 133.0 
138.056015 1033.0 
139.038315 540.0 
140.037201 210.0 
142.064987 1172.0 
143.035095 101.0 
143.07428 822.0 
144.04805 292.0 
144.078232 715.0 
145.053085 168.0 
146.021805 1545.0 
146.057129 405.0 
146.095764 172.0 
147.030396 206.0 
147.061722 135.0 
147.995087 124.0 
148.037964 28319.0 
148.272003 92.0 
148.363373 242.0 
148.725189 83.0 
149.034088 8125.0 
149.21817 181.0 
149.377335 125.0 
150.042313 917.0 
154.061584 963.0 
155.07106 951.0 
155.93602 88.0 
158.091202 121.0 
160.041473 180.0 
160.073898 426.0 
161.035034 109.0 
162.053299 529.0 
163.025925 6886.0 
164.028503 606.0 
165.075272 183.0 
167.963531 137.0 
168.078232 1548.0 
168.139542 124.0 
168.916 186.0 
169.087082 2058.0 
170.033463 254.0 
170.061539 376.0 
170.0961 1106.0 
171.104126 192.0 
171.822662 171.0 
172.072357 450.0 
173.081024 192.0 
173.152298 187.0 
174.016968 157.0 
174.054321 3651.0 
175.058167 605.0 
176.069839 279.0 
178.049377 4663.0 
179.049698 394.0 
180.062866 785.0 
182.097733 735.0 
183.101822 171.0 
184.094803 237.0 
184.114716 368.0 
185.11525 182.0 
186.081009 350.0 
186.929428 180.0 
187.063721 299.0 
187.915298 157.0 
188.038986 922.0 
188.070435 3245.0 
189.036743 199.0 
189.075363 160.0 
190.050476 1968.0 
190.084946 950.0 
191.053879 210.0 
192.066696 113.0 
193.070923 239.0 
196.073685 527.0 
197.082565 157.0 
200.066803 175.0 
202.090576 343.0 
204.062546 198.0 
204.103302 301.0 
205.057373 216.0 
207.045868 132.0 
207.359665 255.0 
212.066803 1014.0 
212.112869 145.0 
212.446701 89.0 
213.062973 178.0 
213.089371 162.0 
214.049896 133.0 
214.084534 6759.0 
215.090469 364.0 
219.609695 155.0 
220.058731 4135.0 
221.052719 208.0 
221.074753 300.0 
221.150879 104.0 
222.076279 11734.0 
223.078903 1328.0 
227.052231 229.0 
228.056885 157.0 
228.098068 1292.0 
229.104721 255.0 
230.077927 176.0 
232.093277 738.0 
232.492065 111.0 
233.85405 311.0 
234.08017 1026.0 
235.078476 311.0 
240.064667 411.0 
244.089203 371.0 
244.131989 481.0 
246.077606 355.0 
246.107681 243.0 
247.122192 133.0 
256.096619 1012.0 
262.108154 98.0 
270.111542 534.0 
288.123047 6729.0 
289.122742 433.0 
291.481232 99.0 
1360.352417 192.0 
1514.759155 157.0 
1803.458862 102.0 
END IONS

BEGIN IONS
TITLE=Scan Number: 37
PEPMASS=387.237
CHARGE=1+
MSLEVEL=2
FILENAME=G7_RG7_01_2953.mzXML
INSTRUMENT=ion trap
SCANS=37
SMILES=CC(O)CC1CCC(O1)C(C)C(=O)OC(C)CC2CCC(O2)C(C)C(O)=O
INCHIKEY=VIHRKOVEWCGJQP-UHFFFAOYSA-N
70.037468 469.0 
70.073853 218.0 
70.482201 70.0 
71.048668 1637.0 
71.237427 56.0 
72.053123 520.0 
77.041931 334.0 
78.038727 193.0 
79.0541 2187.0 
80.056328 213.0 
81.06871 1767.0 
81.53788 92.0 
82.293396 324.0 
82.677414 63.0 
82.881714 106.0 
83.049217 2553.0 
83.08532 5491.0 
84.052017 393.0 
84.089188 432.0 
84.272072 58.0 
85.027687 389.0 
85.064384 1608.0 
85.818756 39.0 
86.069786 170.0 
86.775261 340.0 
87.043419 621.0 
87.372963 79.0 
88.250267 243.0 
88.345222 386.0 
88.700447 201.0 
90.908798 46.0 
91.05481 4906.0 
92.050598 208.0 
92.61422 240.0 
92.766212 111.0 
93.07 33410.0 
93.141121 28.0 
93.154053 74.0 
94.04895 128.0 
94.073051 1786.0 
94.202965 49.0 
94.69899 59.0 
95.046951 526.0 
95.078781 102.0 
95.912804 85.0 
96.625275 147.0 
97.041962 145.0 
97.064751 9934.0 
97.10141 184.0 
98.070244 813.0 
98.888832 86.0 
99.04586 654.0 
99.078819 409.0 
102.835236 119.0 
104.374077 26.0 
105.043953 2116.0 
105.069893 1564.0 
105.180763 83.0 
105.35672 41.0 
106.038795 236.0 
106.06675 172.0 
107.086136 2187.0 
107.190285 39.0 
108.085144 125.0 
109.063766 754.0 
110.983192 144.0 
111.044571 302.0 
111.080269 36676.0 
111.109329 405.0 
111.512749 185.0 
112.083496 2341.0 
112.19548 35.0 
113.059265 144.0 
113.084633 316.0 
115.078461 116.0 
115.538475 32.0 
119.088463 468.0 
120.123756 121.0 
120.999611 84.0 
121.101242 13283.0 
121.154785 83.0 
121.18158 56.0 
122.037811 51.0 
122.103798 1752.0 
123.078804 678.0 
123.114349 152.0 
124.110222 51.0 
124.842049 185.0 
125.059586 25076.0 
125.094765 1193.0 
126.063507 1762.0 
128.989182 79.0 
129.05278 907.0 
129.089127 1106.0 
129.287918 131.0 
130.433121 70.0 
131.087296 597.0 
133.078186 158.0 
137.092865 85.0 
139.110382 1632.0 
140.11647 278.0 
141.092789 91.0 
143.07016 21755.0 
144.074966 1658.0 
144.318863 122.0 
144.978119 37.0 
145.076202 181.0 
146.275238 216.0 
146.714096 75.0 
149.09584 3681.0 
150.099319 217.0 
151.548172 46.0 
152.32251 55.0 
165.023956 151.0 
166.161011 41.0 
166.747849 146.0 
166.952896 127.0 
166.985214 68.0 
167.075485 787.0 
167.106659 41452.0 
167.188004 87.0 
167.407593 50.0 
167.48732 204.0 
167.577499 76.0 
167.953461 182.0 
168.110291 4621.0 
169.290466 163.0 
169.395477 40.0 
169.45433 80.0 
169.636765 130.0 
171.101532 244.0 
171.790771 19.0 
175.482483 100.0 
179.222473 62.0 
182.08136 181.0 
184.106827 233.0 
184.723312 216.0 
185.116928 15828.0 
185.424561 56.0 
185.747849 58.0 
186.123306 959.0 
192.175354 52.0 
203.094788 148.0 
203.127563 3923.0 
204.131409 303.0 
217.892685 77.0 
341.258942 71.0 
369.188721 121.0 
387.238312 248.0 
533.915649 61.0 
662.051025 56.0 
1487.099731 340.0 
1643.915161 343.0 
1656.0271 177.0 
1659.001831 155.0 
1664.553223 243.0 
1731.858765 294.0 
1763.929199 170.0 
1800.07605 133.0 
1825.290039 320.0 
1837.174683 279.0 
1846.512451 213.0 
1897.25 296.0 
1910.456177 292.0 
1965.77771 291.0 
END IONS

BEGIN IONS
TITLE=Scan Number: 38
PEPMASS=404.26401
CHARGE=1+
MSLEVEL=2
FILENAME=G7_RG7_01_2953.mzXML
INSTRUMENT=ion trap
SCANS=38
SMILES=CC(O)CC1CCC(O1)C(C)C(=O)OC(C)CC2CCC(O2)C(C)C(O)=O
INCHIKEY=VIHRKOVEWCGJQP-UHFFFAOYSA-N
70.032211 283.0 
71.049088 3887.0 
71.24678 168.0 
71.984795 92.0 
72.053635 410.0 
73.420753 224.0 
73.936646 88.0 
74.959877 225.0 
75.009331 321.0 
75.044823 1157.0 
75.54966 111.0 
75.563271 128.0 
76.154457 189.0 
76.341446 69.0 
76.552391 143.0 
77.032516 592.0 
78.124054 185.0 
78.258308 261.0 
79.053848 2980.0 
80.055656 192.0 
80.842522 329.0 
81.069603 4047.0 
81.162315 118.0 
82.074661 182.0 
82.155495 209.0 
82.310646 390.0 
82.838707 219.0 
83.020432 209.0 
83.048676 5475.0 
83.085381 14012.0 
83.112656 217.0 
83.171768 151.0 
84.088921 201.0 
85.02877 357.0 
85.045952 109.0 
85.064423 4478.0 
86.068336 135.0 
86.632507 76.0 
86.812424 261.0 
87.043869 1624.0 
87.098969 54.0 
87.890312 146.0 
88.703926 57.0 
90.297997 191.0 
90.456558 132.0 
91.027046 154.0 
91.053986 4687.0 
91.286148 212.0 
92.059784 771.0 
93.069794 58398.0 
93.123466 313.0 
94.074043 4713.0 
94.391518 171.0 
94.580429 115.0 
95.047066 1441.0 
95.08532 557.0 
95.263596 185.0 
95.328598 82.0 
96.05378 249.0 
97.064415 18805.0 
97.101303 529.0 
98.068504 2342.0 
98.59565 158.0 
99.081108 1290.0 
99.448257 288.0 
100.074745 189.0 
100.478577 89.0 
100.880562 230.0 
102.422485 310.0 
103.052322 176.0 
104.033966 83.0 
105.02021 367.0 
105.044777 3508.0 
105.070961 2033.0 
106.073112 383.0 
106.777557 75.0 
107.046852 204.0 
107.085823 2321.0 
108.08567 756.0 
108.41671 84.0 
109.064804 962.0 
110.055336 139.0 
110.629852 293.0 
110.956818 235.0 
111.044205 1220.0 
111.080238 102862.0 
111.114113 279.0 
111.482643 301.0 
112.084183 7710.0 
112.714958 135.0 
113.077179 136.0 
115.074669 1006.0 
116.062157 231.0 
119.000931 251.0 
119.035034 219.0 
119.521675 64.0 
120.74102 270.0 
120.969604 109.0 
121.030396 138.0 
121.07235 409.0 
121.100693 30823.0 
121.210579 271.0 
121.227921 127.0 
122.083328 180.0 
122.104797 1903.0 
123.03334 158.0 
123.080154 1478.0 
123.117065 197.0 
123.271286 187.0 
124.072067 111.0 
124.577599 148.0 
124.599396 141.0 
124.922989 169.0 
124.987709 94.0 
125.059555 65851.0 
125.096848 2580.0 
125.271011 232.0 
125.509148 62.0 
125.990753 76.0 
126.037346 309.0 
126.062393 4930.0 
126.989594 289.0 
127.061096 526.0 
127.106415 165.0 
129.021851 271.0 
129.052292 708.0 
129.091232 5323.0 
130.096069 196.0 
131.08902 524.0 
133.075974 291.0 
133.930969 119.0 
134.079208 165.0 
135.835175 108.0 
137.008896 126.0 
138.009552 171.0 
139.07309 155.0 
139.111801 8370.0 
140.116623 444.0 
140.226608 154.0 
140.975067 167.0 
141.093903 301.0 
142.473083 113.0 
142.943741 150.0 
143.069885 83163.0 
143.454483 115.0 
143.678741 235.0 
144.072464 4458.0 
144.690216 68.0 
144.996902 93.0 
145.084229 63.0 
145.200653 141.0 
147.749802 263.0 
149.095184 8340.0 
150.097229 583.0 
150.309006 128.0 
151.07695 209.0 
152.636932 101.0 
154.068237 150.0 
154.361664 120.0 
155.038437 902.0 
155.190201 81.0 
155.350525 58.0 
155.512253 228.0 
157.124512 358.0 
158.06105 137.0 
161.621384 232.0 
161.694687 205.0 
165.089249 114.0 
165.966019 95.0 
166.445145 138.0 
166.528641 145.0 
166.673584 120.0 
166.836624 205.0 
166.918106 170.0 
167.106506 149580.0 
167.208038 84.0 
167.444885 149.0 
168.085068 437.0 
168.110413 8776.0 
169.046738 233.0 
169.117554 90.0 
169.280624 97.0 
169.42485 203.0 
169.493835 115.0 
170.02182 111.0 
172.242279 93.0 
173.049759 795.0 
175.273972 122.0 
175.857971 84.0 
177.045761 268.0 
179.036942 142.0 
181.125015 783.0 
182.793533 141.0 
183.100967 948.0 
183.362305 57.0 
183.677109 61.0 
184.469879 190.0 
184.640091 92.0 
184.684219 143.0 
184.788193 91.0 
185.00029 180.0 
185.049957 534.0 
185.116928 116336.0 
185.259537 93.0 
185.293747 92.0 
185.324707 79.0 
185.508087 78.0 
185.618744 117.0 
186.085999 247.0 
186.120712 7602.0 
186.162674 94.0 
186.37532 116.0 
186.662308 71.0 
187.059464 119.0 
187.227005 121.0 
187.370178 72.0 
187.405655 84.0 
188.874207 54.0 
189.965134 150.0 
191.046173 111.0 
197.374512 255.0 
199.139359 148.0 
199.239334 102.0 
200.210342 178.0 
201.045288 342.0 
202.789505 109.0 
202.935562 78.0 
203.05394 253.0 
203.127197 49386.0 
203.219376 271.0 
203.917175 56.0 
204.129852 4419.0 
205.678528 84.0 
205.780853 88.0 
217.142914 111.0 
220.845551 225.0 
223.068924 104.0 
225.109497 238.0 
227.568985 77.0 
228.16684 150.0 
231.100281 202.0 
258.079468 132.0 
259.083313 159.0 
277.104218 485.0 
278.091339 126.0 
279.094391 148.0 
286.578308 113.0 
294.365936 101.0 
295.184235 68.0 
309.17334 246.0 
327.186279 1089.0 
329.860565 90.0 
329.996735 58.0 
333.1026 143.0 
351.219788 701.0 
352.186737 114.0 
352.222046 182.0 
368.460632 159.0 
369.226959 3441.0 
370.19989 369.0 
370.228485 948.0 
372.029175 68.0 
386.500793 87.0 
387.10202 68.0 
387.239044 12019.0 
387.620697 141.0 
388.240479 2441.0 
401.229889 84.0 
404.318298 157.0 
406.229034 76.0 
425.194275 441.0 
443.200562 270.0 
509.78064 63.0 
812.354431 108.0 
1188.507935 370.0 
1297.539795 166.0 
1299.290527 119.0 
1401.349854 299.0 
1515.835938 120.0 
1539.154663 156.0 
1570.932251 147.0 
1580.045166 315.0 
1594.006592 263.0 
1615.338623 240.0 
1619.318115 185.0 
1674.313599 196.0 
1742.274414 286.0 
1767.822876 195.0 
1774.099243 206.0 
1782.45166 191.0 
1820.139282 148.0 
1831.269409 285.0 
1841.72168 86.0 
1912.741577 214.0 
1925.111694 234.0 
1928.710693 182.0 
1934.56543 225.0 
1982.770508 314.0 
1991.163208 248.0 
END IONS

BEGIN IONS
TITLE=Scan Number: 39
PEPMASS=409.21899
CHARGE=1+
MSLEVEL=2
FILENAME=G7_RG7_01_2953.mzXML
INSTRUMENT=ion trap
SCANS=39
SMILES=CC(O)CC1CCC(O1)C(C)C(=O)OC(C)CC2CCC(O2)C(C)C(O)=O
INCHIKEY=VIHRKOVEWCGJQP-UHFFFAOYSA-N
73.989937 224.0 
89.44648 216.0 
117.122963 240.0 
136.322067 147.0 
138.585251 251.0 
154.014877 100.0 
167.106812 191.0 
168.741058 215.0 
182.397766 188.0 
185.054001 196.0 
197.495407 163.0 
205.323776 159.0 
207.097092 1228.0 
208.09903 237.0 
209.782593 102.0 
209.818909 235.0 
210.136139 128.0 
213.856873 192.0 
218.076599 228.0 
219.087082 145.0 
225.109634 13265.0 
226.11232 1422.0 
238.114853 167.0 
274.049347 105.0 
277.094025 132.0 
285.080719 169.0 
291.394806 214.0 
309.889801 191.0 
329.723969 192.0 
365.230438 205.0 
366.227997 187.0 
397.973114 269.0 
408.225159 103.0 
408.326965 121.0 
408.775055 168.0 
408.960541 86.0 
409.066528 226.0 
409.102997 346.0 
409.143463 294.0 
409.220306 58105.0 
409.306549 353.0 
409.721893 126.0 
409.863556 110.0 
410.22229 10061.0 
410.977142 108.0 
411.751068 84.0 
412.803833 114.0 
412.931976 98.0 
428.406219 116.0 
430.179688 359.0 
END IONS

BEGIN IONS
TITLE=Scan Number: 41
PEPMASS=271.09601
CHARGE=1+
MSLEVEL=2
FILENAME=C3_RC3_01_2925.mzXML
INSTRUMENT=ion trap
SCANS=41
SMILES=CC(C)=CCOC1=C2C=CC(=O)OC2=CC3=C1C=CO3
INCHIKEY=IGWDEVSBEKYORK-UHFFFAOYSA-N
75.021339 200.0 
77.039642 293.0 
78.00959 208.0 
80.967323 127.0 
84.231789 409.0 
84.314568 21.0 
89.014168 164.0 
89.038605 417.0 
90.046227 282.0 
91.054192 28566.0 
91.115417 259.0 
91.127014 221.0 
91.992874 79.0 
92.05722 1994.0 
92.337914 98.0 
92.509804 28.0 
93.03492 545.0 
93.0588 211.0 
93.459106 99.0 
94.909889 341.0 
95.009918 294.0 
95.050011 1174.0 
96.052254 154.0 
97.051369 217.0 
101.039574 534.0 
102.044075 547.0 
103.054474 4898.0 
103.220543 216.0 
104.061974 494.0 
105.042847 3469.0 
107.049828 178.0 
107.334213 58.0 
109.310013 292.0 
110.030365 127.0 
114.645203 185.0 
116.190979 362.0 
117.036705 140.0 
117.499359 234.0 
118.039856 137.0 
119.048866 14089.0 
119.129631 86.0 
119.376945 126.0 
119.965584 68.0 
120.029655 91.0 
120.05233 1962.0 
124.055428 172.0 
125.478882 93.0 
129.009277 157.0 
129.038422 554.0 
129.195404 207.0 
130.035599 166.0 
130.745514 114.0 
130.887543 134.0 
131.016998 165.0 
131.049011 18503.0 
132.050598 2244.0 
133.089813 83.0 
137.059906 200.0 
138.970871 153.0 
143.250092 214.0 
145.039413 492.0 
146.012772 200.0 
146.038177 157.0 
146.879578 169.0 
147.044037 98420.0 
147.118698 104.0 
147.190384 34.0 
147.292953 61.0 
147.335205 64.0 
147.400909 40.0 
147.667328 81.0 
148.018784 222.0 
148.047501 8799.0 
148.45546 156.0 
148.791367 197.0 
149.01976 83.0 
149.298203 19.0 
156.980087 327.0 
157.026886 1020.0 
157.778015 58.0 
158.034348 161.0 
159.016403 418.0 
159.044266 13963.0 
159.100433 115.0 
159.489059 57.0 
160.046936 1060.0 
162.033508 42.0 
163.687897 91.0 
169.041885 206.0 
174.03035 818.0 
175.037964 3947.0 
185.035477 320.0 
187.012314 256.0 
188.068863 364.0 
201.298004 74.0 
202.024216 1470.0 
202.121552 197.0 
202.331238 242.0 
202.804413 132.0 
202.832352 107.0 
202.853973 64.0 
202.957993 205.0 
203.033569 127609.0 
203.12001 96.0 
203.17543 134.0 
203.292465 96.0 
203.421417 150.0 
203.452087 102.0 
203.549057 158.0 
203.589264 234.0 
204.006561 331.0 
204.037094 8173.0 
204.382446 38.0 
204.487503 57.0 
204.710342 96.0 
204.953598 86.0 
205.214203 79.0 
205.288666 72.0 
205.337112 97.0 
205.567596 108.0 
205.616257 120.0 
206.208252 129.0 
206.324631 132.0 
207.400696 146.0 
207.851318 83.0 
211.817078 53.0 
216.040588 176.0 
216.590942 41.0 
216.82489 65.0 
259.934235 55.0 
271.103577 125.0 
425.371887 38.0 
578.097778 65.0 
1265.706787 31.0 
1326.763916 173.0 
1519.752075 113.0 
1582.84729 273.0 
1689.431396 222.0 
1745.909668 306.0 
1866.538452 160.0 
1886.354126 351.0 
END IONS

BEGIN IONS
TITLE=Scan Number: 42
PEPMASS=288.12299
CHARGE=1+
MSLEVEL=2
FILENAME=C3_RC3_01_2925.mzXML
INSTRUMENT=ion trap
SCANS=42
SMILES=CC(C)=CCOC1=C2C=CC(=O)OC2=CC3=C1C=CO3
INCHIKEY=IGWDEVSBEKYORK-UHFFFAOYSA-N
74.403381 166.0 
79.805687 192.0 
90.04599 118.0 
91.054016 4464.0 
92.058769 344.0 
95.035576 198.0 
102.047348 157.0 
103.054344 1290.0 
104.059998 142.0 
105.044922 82.0 
114.091667 453.0 
114.499969 228.0 
119.029045 202.0 
119.048759 3729.0 
119.800049 108.0 
129.848877 260.0 
131.028046 342.0 
131.04834 5592.0 
132.052048 337.0 
133.029724 177.0 
135.008026 199.0 
137.060883 145.0 
145.852203 109.0 
146.031647 119.0 
146.87767 81.0 
147.04393 29044.0 
148.046921 2644.0 
150.229095 146.0 
156.995438 237.0 
157.030243 257.0 
159.043747 3843.0 
160.049377 506.0 
161.053925 129.0 
174.027069 224.0 
175.039536 2606.0 
176.036194 80.0 
201.118027 196.0 
202.021103 150.0 
202.720322 127.0 
202.77034 177.0 
202.983505 614.0 
203.033737 68988.0 
203.228134 253.0 
203.360443 80.0 
203.988739 113.0 
204.034668 5057.0 
204.281219 110.0 
205.692307 209.0 
233.271118 82.0 
233.502411 147.0 
271.094086 366.0 
1440.056152 95.0 
1981.986084 115.0 
END IONS

BEGIN IONS
TITLE=Scan Number: 43
PEPMASS=305.10199
CHARGE=1+
MSLEVEL=2
FILENAME=C3_RC3_01_2925.mzXML
INSTRUMENT=ion trap
SCANS=43
SMILES=CC(C)(O)C(O)COC1=C2OC(=O)C=CC2=CC3=C1OC=C3
INCHIKEY=FOINLJRVEBYARJ-UHFFFAOYSA-N
89.040344 751.0 
90.038696 122.0 
91.055748 179.0 
95.383675 177.0 
101.042542 530.0 
106.042236 215.0 
117.033554 143.0 
129.031326 654.0 
131.053482 819.0 
131.082245 117.0 
131.331635 93.0 
142.078064 174.0 
145.029129 764.0 
146.037231 166.0 
146.097412 187.0 
147.046066 2976.0 
147.0793 227.0 
148.996323 179.0 
157.03096 569.0 
158.030685 196.0 
172.940552 136.0 
172.959274 286.0 
173.023422 2068.0 
173.090454 163.0 
174.024582 443.0 
175.038773 872.0 
176.044403 157.0 
183.013229 109.0 
185.015656 402.0 
187.028748 230.0 
199.039948 318.0 
201.017563 1321.0 
202.024414 736.0 
203.001389 323.0 
203.034775 5227.0 
204.034103 303.0 
215.031662 107.0 
221.045029 199.0 
227.070343 108.0 
228.068619 239.0 
233.079926 296.0 
241.0784 223.0 
267.669464 136.0 
269.08194 1504.0 
270.085419 814.0 
287.086456 194.0 
289.110718 114.0 
306.161041 212.0 
END IONS

BEGIN IONS
TITLE=Scan Number: 44
PEPMASS=322.129
CHARGE=1+
MSLEVEL=2
FILENAME=C3_RC3_01_2925.mzXML
INSTRUMENT=ion trap
SCANS=44
SMILES=CC(C)(O)C(O)COC1=C2OC(=O)C=CC2=CC3=C1OC=C3
INCHIKEY=FOINLJRVEBYARJ-UHFFFAOYSA-N
70.581406 297.0 
83.048859 146.0 
84.959702 192.0 
85.064049 494.0 
88.952744 252.0 
89.038292 3209.0 
90.05127 228.0 
91.054039 270.0 
91.19268 100.0 
93.330147 234.0 
101.03688 150.0 
103.051727 561.0 
105.042778 231.0 
106.492805 345.0 
111.257454 172.0 
111.318733 226.0 
115.033241 174.0 
115.056984 219.0 
117.011856 191.0 
117.033455 1420.0 
118.040039 229.0 
119.04644 563.0 
119.967186 186.0 
125.302147 390.0 
125.56353 360.0 
128.066452 363.0 
129.032944 3706.0 
129.07341 200.0 
130.049713 169.0 
131.04776 4142.0 
131.653519 251.0 
132.052658 298.0 
132.772415 190.0 
133.024948 205.0 
135.045868 176.0 
140.446167 216.0 
141.069214 150.0 
142.080215 183.0 
143.050888 561.0 
143.085083 301.0 
144.052185 183.0 
144.360321 280.0 
144.999649 271.0 
145.02803 10830.0 
145.064514 299.0 
145.210632 120.0 
146.031693 2099.0 
146.371658 361.0 
146.771545 299.0 
147.043839 26514.0 
147.235077 147.0 
148.048035 2195.0 
148.177536 114.0 
148.269684 199.0 
148.302124 140.0 
149.185501 81.0 
149.232407 157.0 
151.044891 239.0 
155.035278 167.0 
156.587036 200.0 
156.984131 224.0 
157.02803 9465.0 
157.102112 192.0 
157.334045 91.0 
157.993668 98.0 
158.031311 617.0 
158.074173 300.0 
159.043503 3235.0 
159.866577 301.0 
160.028305 585.0 
161.034729 136.0 
163.042236 226.0 
167.83197 338.0 
170.070023 167.0 
171.044327 2019.0 
172.056412 265.0 
172.700409 111.0 
173.023682 23307.0 
174.028671 5682.0 
175.039032 6482.0 
175.110214 85.0 
175.342758 131.0 
176.040298 902.0 
177.468872 229.0 
178.090378 149.0 
178.919952 360.0 
179.755051 79.0 
181.068405 193.0 
184.050873 121.0 
185.021622 3438.0 
185.059052 167.0 
185.095474 382.0 
186.025894 1332.0 
187.040405 163.0 
191.028992 116.0 
195.078339 247.0 
197.045914 170.0 
197.07164 190.0 
198.068222 386.0 
199.038986 3281.0 
199.074219 1916.0 
200.038574 289.0 
201.018372 23586.0 
201.552475 139.0 
202.023697 4489.0 
202.117737 225.0 
202.453842 206.0 
202.880753 201.0 
202.925751 287.0 
203.034103 95461.0 
204.037766 8703.0 
205.075348 293.0 
210.335052 101.0 
212.046967 172.0 
212.330231 84.0 
213.053375 430.0 
213.093658 332.0 
214.18486 150.0 
214.835114 264.0 
215.03331 1591.0 
217.088715 186.0 
221.035492 305.0 
222.595184 206.0 
223.082947 226.0 
225.068176 281.0 
226.057281 156.0 
227.037155 208.0 
227.069962 3058.0 
227.906693 164.0 
228.072922 280.0 
228.352692 80.0 
229.058319 205.0 
233.686951 118.0 
240.064087 104.0 
241.049057 216.0 
241.087387 3228.0 
242.089645 197.0 
242.979919 269.0 
243.065262 3940.0 
243.374054 126.0 
244.067551 155.0 
251.070694 435.0 
252.069687 157.0 
267.979065 119.0 
269.081146 26777.0 
270.086548 2249.0 
272.085693 176.0 
276.996216 142.0 
287.091064 10918.0 
288.100067 763.0 
289.871368 105.0 
290.615662 135.0 
295.070984 105.0 
305.103912 442.0 
306.110107 168.0 
1647.94104 182.0 
1802.221313 141.0 
1939.321167 274.0 
1965.270996 90.0 
END IONS

BEGIN IONS
TITLE=Scan Number: 46
PEPMASS=471.09
CHARGE=1+
MSLEVEL=2
FILENAME=C3_RC3_01_2925.mzXML
INSTRUMENT=ion trap
SCANS=46
SMILES=OC[C@H]1O[C@@H](OC2=C(OC3=C(C2=O)C(O)=CC(O)=C3)C4=CC=C(O)C=C4)[C@H](O)[C@@H](O)[C@H]1O
INCHIKEY=JPUKWEQWGBDDQB-DTGCRPNFSA-N
101.057083 153.0 
103.034691 127.0 
105.068886 177.0 
116.051064 1509.0 
117.055687 139.0 
128.141968 148.0 
132.076752 112.0 
137.05896 193.0 
158.918518 193.0 
172.115387 3870.0 
173.119339 936.0 
185.044037 202.0 
204.074234 167.0 
217.993774 157.0 
268.027191 115.0 
269.991241 302.0 
286.032684 414.0 
287.031006 162.0 
288.029572 136.0 
292.029358 117.0 
317.576172 291.0 
329.133301 147.0 
430.303558 261.0 
470.386719 187.0 
470.982819 164.0 
471.104401 6637.0 
471.281952 169.0 
472.102905 2003.0 
473.098328 443.0 
END IONS

BEGIN IONS
TITLE=Scan Number: 51
PEPMASS=229.049
CHARGE=1+
MSLEVEL=2
FILENAME=G7_GG7_01_2724.mzXML
INSTRUMENT=ion trap
SCANS=51
SMILES=OC1=CC2=C(OC3=CC=CC(O)=C3C2=O)C=C1
INCHIKEY=KDXFPEKLLFWHMN-UHFFFAOYSA-N
92.02327 194.0 
106.999023 104.0 
108.518059 78.0 
109.02021 94.0 
109.822693 288.0 
110.034737 133.0 
115.052475 405.0 
127.055313 735.0 
128.872742 143.0 
133.899124 258.0 
137.023529 218.0 
155.048935 2736.0 
156.051392 369.0 
170.953003 269.0 
173.056168 162.0 
211.044495 229.0 
214.065079 208.0 
229.048843 4160.0 
229.255463 127.0 
229.303711 125.0 
230.050552 183.0 
356.380066 482.0 
END IONS

BEGIN IONS
TITLE=Scan Number: 53
PEPMASS=373.237
CHARGE=1+
MSLEVEL=2
FILENAME=G7_GG7_01_2724.mzXML
INSTRUMENT=ion trap
SCANS=53
SMILES=CC(C)=CCC\C(C)=C\CC\C(C)=C\CC1=C(O)C=C(CO)C(C=O)=C1O
INCHIKEY=ZVMKPMYSSLDZJO-XURGJTJWSA-N
77.038391 141.0 
77.076706 131.0 
79.018333 150.0 
79.057388 541.0 
79.105331 93.0 
81.019226 191.0 
81.070961 568.0 
89.039932 245.0 
93.074219 152.0 
95.082718 282.0 
97.061974 173.0 
105.045433 800.0 
105.067863 244.0 
107.048569 997.0 
107.088585 130.0 
109.03315 160.0 
109.100807 258.0 
110.87014 92.0 
117.034775 709.0 
121.030388 311.0 
121.065117 194.0 
123.896484 110.0 
125.026627 113.0 
126.065414 180.0 
127.075348 155.0 
130.075165 160.0 
135.044662 2768.0 
136.047852 446.0 
137.061493 370.0 
145.028839 923.0 
146.669571 235.0 
149.075165 213.0 
151.037811 330.0 
153.055145 137.0 
161.056854 149.0 
162.375427 108.0 
163.038971 15037.0 
163.075363 125.0 
163.539032 107.0 
163.844772 107.0 
164.041641 1384.0 
165.054718 574.0 
177.053009 173.0 
179.033493 135.0 
179.071533 144.0 
180.567673 190.0 
181.047089 1880.0 
183.079132 103.0 
183.495132 112.0 
197.094513 134.0 
201.092972 247.0 
203.067841 249.0 
203.104416 145.0 
204.072342 212.0 
212.082718 228.0 
215.114212 146.0 
219.100784 548.0 
239.099182 110.0 
273.150208 108.0 
281.160706 297.0 
287.168945 142.0 
295.171753 180.0 
352.178619 129.0 
355.228821 4074.0 
355.876312 83.0 
357.678223 124.0 
1710.19873 144.0 
END IONS

BEGIN IONS
TITLE=Scan Number: 54
PEPMASS=355.22601
CHARGE=1+
MSLEVEL=2
FILENAME=G7_GG7_01_2724.mzXML
INSTRUMENT=ion trap
SCANS=54
SMILES=CC(C)=CCC\C(C)=C\CC\C(C)=C\CC1=C(O)C=C(CO)C(C=O)=C1O
INCHIKEY=ZVMKPMYSSLDZJO-XURGJTJWSA-N
70.072487 257.0 
71.195076 201.0 
75.787804 242.0 
77.039276 453.0 
77.855515 159.0 
78.079826 157.0 
78.468452 128.0 
79.053444 3641.0 
81.033356 140.0 
81.069283 1769.0 
81.773567 138.0 
88.626335 380.0 
88.760368 227.0 
89.038803 986.0 
89.634201 170.0 
91.05368 1191.0 
92.058952 150.0 
92.774773 162.0 
93.070549 848.0 
93.196381 111.0 
95.018394 286.0 
95.049316 1324.0 
95.083405 292.0 
100.473656 279.0 
105.043999 4729.0 
105.073654 190.0 
106.045357 202.0 
106.986992 279.0 
107.012337 148.0 
107.0485 7985.0 
107.084312 319.0 
108.055542 749.0 
108.087479 253.0 
109.028267 848.0 
109.101234 313.0 
110.102364 191.0 
113.194221 282.0 
116.061737 159.0 
117.033447 2562.0 
117.068031 167.0 
118.039146 499.0 
121.030037 1610.0 
121.096596 116.0 
121.169518 343.0 
122.03212 276.0 
122.106743 236.0 
123.123802 159.0 
129.06752 145.0 
131.047684 156.0 
132.795059 197.0 
133.023361 223.0 
134.035248 342.0 
135.043503 16107.0 
135.081039 354.0 
135.283936 114.0 
135.436737 79.0 
136.048492 1253.0 
136.119888 483.0 
137.058289 1200.0 
137.135132 396.0 
138.064468 232.0 
142.077881 112.0 
145.00386 457.0 
145.028107 3473.0 
146.029877 472.0 
147.052841 473.0 
147.082581 700.0 
147.139969 113.0 
149.062439 323.0 
149.132629 388.0 
151.0401 2394.0 
151.071442 360.0 
152.07515 95.0 
155.061356 163.0 
158.11116 200.0 
160.05217 195.0 
160.076447 134.0 
161.021637 395.0 
161.061508 932.0 
162.313644 109.0 
162.847366 292.0 
162.950516 97.0 
163.039398 107012.0 
163.134491 95.0 
163.179703 132.0 
163.635696 114.0 
163.979721 121.0 
164.041626 5628.0 
164.258133 149.0 
165.054565 5074.0 
166.056427 142.0 
173.089401 128.0 
174.072296 301.0 
175.039978 295.0 
175.075531 708.0 
175.789032 96.0 
177.055206 1382.0 
178.059464 145.0 
179.032852 712.0 
181.05661 177.0 
185.096954 117.0 
187.077209 259.0 
187.107285 145.0 
189.055969 123.0 
189.095795 165.0 
189.12793 124.0 
191.057281 427.0 
191.100967 251.0 
191.173767 156.0 
198.07048 123.0 
200.079315 170.0 
201.094208 626.0 
203.072296 786.0 
203.106583 1012.0 
204.071213 158.0 
205.085709 1199.0 
205.337662 341.0 
213.090622 89.0 
215.072342 101.0 
215.108032 433.0 
215.669998 199.0 
217.08699 351.0 
217.122025 172.0 
219.099701 1384.0 
219.166077 78.0 
227.082993 130.0 
227.105057 180.0 
229.085175 296.0 
229.119766 218.0 
231.100815 2838.0 
232.097733 102.0 
233.117645 223.0 
242.132523 115.0 
243.100906 192.0 
245.108978 123.0 
247.142365 128.0 
257.157379 250.0 
259.135101 212.0 
259.170227 159.0 
269.183167 200.0 
270.136566 170.0 
271.132599 137.0 
281.156128 376.0 
283.161255 159.0 
285.152283 153.0 
286.157196 174.0 
287.167664 627.0 
288.170624 228.0 
299.164032 572.0 
299.203522 124.0 
308.594238 124.0 
327.223938 113.0 
337.215393 97.0 
342.036346 194.0 
353.933289 112.0 
354.546082 131.0 
355.227966 14342.0 
355.281738 271.0 
356.186462 149.0 
356.235229 1339.0 
356.294434 133.0 
356.329559 178.0 
356.897461 103.0 
1269.208008 187.0 
1534.89502 278.0 
1674.921875 88.0 
END IONS

BEGIN IONS
TITLE=Scan Number: 57
PEPMASS=463.12299
CHARGE=1+
MSLEVEL=2
FILENAME=G7_GG7_01_2724.mzXML
INSTRUMENT=ion trap
SCANS=57
SMILES=COC1=C(O)C2=C(OC(=CC2=O)C3=CC=C(O[C@@H]4O[C@H](CO)[C@@H](O)[C@H](O)[C@H]4O)C=C3)C=C1O
INCHIKEY=MORLNMAFXVHNAI-IWLDQSELSA-N
75.133102 274.0 
77.859634 197.0 
78.43647 101.0 
81.033104 364.0 
84.020905 195.0 
86.835808 289.0 
91.89209 120.0 
95.013565 234.0 
95.308578 170.0 
97.027466 595.0 
99.568642 138.0 
109.030014 145.0 
110.032288 169.0 
110.881737 206.0 
112.01683 311.0 
113.022583 290.0 
119.044647 689.0 
120.061157 124.0 
120.56189 320.0 
121.008621 169.0 
121.029793 2057.0 
123.82383 212.0 
127.004875 257.0 
127.04187 276.0 
127.598114 295.0 
129.340088 186.0 
129.991943 193.0 
137.263184 230.0 
138.053879 155.0 
140.011887 1678.0 
147.04599 126.0 
147.076141 129.0 
149.400482 164.0 
154.597107 220.0 
156.952148 143.0 
160.052719 559.0 
160.469666 166.0 
165.02063 455.0 
167.565933 84.0 
167.945435 237.0 
168.006683 22967.0 
168.985931 191.0 
169.010849 1544.0 
169.045441 280.0 
170.031723 182.0 
170.78447 243.0 
172.376251 185.0 
172.792923 120.0 
176.068192 279.0 
179.02037 206.0 
183.028503 243.0 
183.116409 96.0 
184.051224 337.0 
186.016113 8039.0 
186.705643 118.0 
187.023315 218.0 
187.234024 336.0 
187.548386 162.0 
187.628983 159.0 
188.021469 507.0 
189.049042 162.0 
189.62085 432.0 
191.338669 147.0 
193.708328 264.0 
195.649506 186.0 
198.896866 163.0 
201.055527 274.0 
201.912506 99.0 
202.061737 428.0 
202.879654 223.0 
205.902786 189.0 
208.298782 281.0 
212.052429 561.0 
212.989517 252.0 
214.872452 307.0 
215.820419 147.0 
217.042526 126.0 
218.723541 193.0 
221.063034 253.0 
225.739105 289.0 
230.052872 189.0 
239.927139 153.0 
241.04892 168.0 
245.338943 213.0 
248.616028 179.0 
250.824493 132.0 
254.845215 176.0 
255.067032 1428.0 
255.335297 99.0 
255.404083 110.0 
256.364807 138.0 
256.981232 187.0 
257.046722 410.0 
258.051514 2119.0 
258.085449 265.0 
259.056641 604.0 
267.154053 141.0 
268.038208 616.0 
271.153961 139.0 
272.525879 282.0 
274.952026 182.0 
275.916351 309.0 
276.733246 299.0 
277.054596 212.0 
279.37381 240.0 
282.220551 237.0 
283.061981 580.0 
283.768646 192.0 
284.546906 115.0 
284.9328 143.0 
284.977631 111.0 
285.006287 267.0 
285.040009 1024.0 
285.078217 218.0 
285.241028 150.0 
285.342834 205.0 
285.460083 195.0 
285.493713 150.0 
285.533173 207.0 
285.718628 283.0 
285.782043 152.0 
285.830536 151.0 
285.881622 440.0 
285.962769 785.0 
286.04834 278815.0 
286.380341 86.0 
286.447388 196.0 
286.561249 194.0 
286.647583 100.0 
286.689636 114.0 
286.877686 236.0 
286.950806 170.0 
287.050812 37706.0 
287.434052 237.0 
287.714752 105.0 
287.959717 102.0 
288.01004 197.0 
288.056519 1944.0 
288.213898 106.0 
288.398834 96.0 
288.565002 209.0 
288.735321 201.0 
288.959839 119.0 
288.996582 160.0 
289.027344 188.0 
289.106232 145.0 
294.40152 263.0 
296.226288 231.0 
298.366364 103.0 
298.727966 195.0 
299.204407 115.0 
299.254913 248.0 
299.336792 155.0 
299.855957 147.0 
299.919708 343.0 
299.945099 439.0 
300.091705 499.0 
300.164917 346.0 
300.294312 284.0 
300.476624 350.0 
300.539612 199.0 
300.588043 106.0 
300.827057 415.0 
300.869354 77.0 
300.927612 87.0 
300.964233 521.0 
301.072083 364599.0 
301.145477 373.0 
301.192902 196.0 
301.231079 339.0 
301.392242 85.0 
301.424347 208.0 
301.473633 150.0 
301.509399 280.0 
301.53299 429.0 
301.650757 128.0 
301.844543 97.0 
301.937531 295.0 
302.001892 128.0 
302.075409 43724.0 
302.13562 175.0 
302.288605 107.0 
302.744019 96.0 
302.809692 147.0 
302.900482 109.0 
303.080841 1351.0 
303.489349 103.0 
303.69455 86.0 
304.094238 256.0 
304.157562 109.0 
304.228607 335.0 
304.298126 175.0 
304.334198 88.0 
304.379913 108.0 
305.366394 111.0 
306.004456 88.0 
312.290344 83.0 
316.100494 116.0 
316.61673 91.0 
323.094543 220.0 
324.895294 145.0 
363.051941 224.0 
379.04068 237.0 
413.073883 172.0 
435.049164 149.0 
463.023346 241.0 
463.12561 19107.0 
463.905792 148.0 
464.080048 459.0 
464.12558 3220.0 
465.132111 90.0 
467.297241 98.0 
1898.291016 217.0 
END IONS

BEGIN IONS
TITLE=Scan Number: 58
PEPMASS=963.276
CHARGE=1+
MSLEVEL=2
FILENAME=G7_GG7_01_2724.mzXML
INSTRUMENT=ion trap
SCANS=58
SMILES=COC1=CC(\C=C\C(=O)OC2C(OC3OC(CO)C(O)C(O)C3OC4OC(CO)C(O)C(O)C4O)C(O)C(CO)OC2C5=C(O)C=C6OC(=CC(=O)C6=C5O)C7=CC(OC)=C(O)C=C7)=CC=C1O
INCHIKEY=NHWODQZQPMIYBP-XBXARRHUSA-N
71.251671 105.0 
72.704773 313.0 
80.903481 185.0 
81.033485 1206.0 
82.035042 205.0 
82.333206 116.0 
85.029007 1466.0 
87.043503 329.0 
87.644356 156.0 
89.038231 1384.0 
92.056381 202.0 
95.996208 167.0 
97.028687 1398.0 
99.045578 638.0 
101.006561 208.0 
101.022179 380.0 
106.037888 158.0 
108.678802 214.0 
109.029755 1914.0 
110.01635 265.0 
117.033142 5963.0 
118.035629 564.0 
118.585487 200.0 
121.063515 244.0 
122.69532 141.0 
123.035789 187.0 
125.855698 342.0 
125.924423 84.0 
127.040146 1520.0 
128.043793 133.0 
132.499146 370.0 
133.371231 200.0 
134.038269 311.0 
135.039474 523.0 
135.466629 106.0 
139.280563 265.0 
143.075287 139.0 
145.02829 51257.0 
145.739746 367.0 
146.032486 4623.0 
146.285599 174.0 
146.339066 83.0 
146.542725 212.0 
146.721237 95.0 
147.035614 450.0 
147.194687 118.0 
149.059387 4398.0 
150.058258 230.0 
151.024887 188.0 
151.857758 288.0 
154.016037 82.0 
154.414001 233.0 
156.356384 216.0 
156.422424 216.0 
156.81395 396.0 
158.45433 92.0 
163.034317 213.0 
169.760635 175.0 
171.044891 128.0 
176.045166 179.0 
176.784775 196.0 
176.815414 135.0 
176.846451 113.0 
176.877167 133.0 
177.054977 254435.0 
177.11058 239.0 
177.316605 109.0 
177.379944 95.0 
177.413971 300.0 
177.638184 105.0 
177.890778 94.0 
177.914444 104.0 
177.946396 197.0 
178.014618 771.0 
178.058289 23194.0 
178.140076 327.0 
179.062088 1811.0 
179.15416 154.0 
179.423904 327.0 
179.513855 319.0 
179.577515 315.0 
180.071564 249.0 
180.178101 107.0 
180.445984 142.0 
181.877853 200.0 
186.053482 162.0 
187.073166 164.0 
187.574661 185.0 
188.124542 149.0 
188.437866 103.0 
190.456223 135.0 
191.028992 151.0 
191.06842 120.0 
191.240448 97.0 
192.126999 272.0 
192.656708 82.0 
192.788513 199.0 
194.510391 109.0 
195.028442 122.0 
195.065018 4068.0 
195.557159 145.0 
199.18811 260.0 
201.651672 200.0 
204.029022 93.0 
207.004654 213.0 
207.526505 248.0 
208.028442 194.0 
208.695435 185.0 
209.797134 144.0 
213.055359 188.0 
216.685516 216.0 
216.975327 201.0 
219.724945 170.0 
231.217224 246.0 
232.610382 189.0 
235.062622 156.0 
239.004883 110.0 
241.799866 200.0 
243.9272 182.0 
245.083694 101.0 
246.687546 128.0 
257.740692 233.0 
259.055664 170.0 
260.565796 248.0 
261.86438 133.0 
262.074341 101.0 
262.705017 135.0 
271.040863 169.0 
274.205322 156.0 
279.086273 1456.0 
280.090546 118.0 
282.048187 181.0 
283.062164 208.0 
285.57196 198.0 
291.084564 202.0 
291.996552 212.0 
294.826508 163.0 
297.079926 221.0 
298.0112 217.0 
298.045776 314.0 
300.067902 156.0 
301.073212 5817.0 
302.071503 1250.0 
303.085999 194.0 
303.951691 83.0 
311.0914 325.0 
312.955505 297.0 
313.027039 1006.0 
313.071381 31085.0 
313.318054 137.0 
313.510956 111.0 
314.071686 5550.0 
314.314392 194.0 
315.036743 602.0 
315.079193 1018.0 
318.3302 182.0 
320.019684 127.0 
320.367706 262.0 
320.990204 457.0 
321.096924 10758.0 
322.101501 1814.0 
323.099945 573.0 
324.061371 194.0 
324.508942 184.0 
324.678741 177.0 
325.033173 548.0 
325.073608 5482.0 
325.825928 183.0 
325.992706 243.0 
326.073822 1854.0 
326.476532 164.0 
326.856995 226.0 
327.089813 1563.0 
328.05484 1010.0 
328.091888 278.0 
329.065979 889.0 
331.388336 94.0 
332.383728 125.0 
335.253357 186.0 
335.898407 156.0 
337.067108 625.0 
338.011444 79.0 
338.083496 386.0 
338.469025 91.0 
338.968353 151.0 
338.993805 328.0 
339.051636 1509.0 
339.107513 18319.0 
339.409393 121.0 
340.021576 111.0 
340.095184 1444.0 
340.111969 1422.0 
340.589691 141.0 
340.958008 141.0 
341.051544 386.0 
341.112183 510.0 
342.033936 192.0 
342.071869 478.0 
342.818573 423.0 
342.882111 89.0 
342.973785 162.0 
343.005524 815.0 
343.081635 87567.0 
343.16153 585.0 
343.542938 447.0 
343.844116 118.0 
344.036102 157.0 
344.086548 13670.0 
344.241455 108.0 
345.087494 2220.0 
346.101654 144.0 
346.200439 159.0 
346.504028 166.0 
347.388184 93.0 
347.896423 124.0 
351.091095 114.0 
352.055878 392.0 
352.994507 117.0 
353.103882 8465.0 
354.106781 1948.0 
354.975037 170.0 
355.084106 900.0 
356.086304 436.0 
356.515717 214.0 
357.105438 141.0 
362.074524 275.0 
363.088196 876.0 
364.069794 115.0 
364.37146 160.0 
365.046356 102.0 
365.080444 523.0 
366.072113 297.0 
366.18045 90.0 
366.788788 215.0 
366.993011 346.0 
367.083466 26551.0 
367.439087 116.0 
368.084686 4489.0 
369.082855 355.0 
369.108734 419.0 
369.979614 83.0 
371.078033 242.0 
371.930267 143.0 
372.089386 507.0 
373.101929 620.0 
377.059479 87.0 
379.036316 184.0 
379.08316 5515.0 
379.621277 118.0 
380.038666 122.0 
380.085693 1002.0 
380.944489 241.0 
381.101807 4109.0 
382.048309 311.0 
382.101044 393.0 
385.08551 938.0 
385.557983 95.0 
386.066193 200.0 
388.739624 309.0 
389.716614 96.0 
390.082397 143.0 
391.012054 187.0 
391.084442 4301.0 
392.098602 177.0 
392.136383 231.0 
392.325256 90.0 
393.503601 115.0 
393.684662 154.0 
394.070343 393.0 
394.115051 136.0 
396.939331 180.0 
397.091064 2051.0 
398.104187 266.0 
399.075836 197.0 
399.117706 168.0 
405.110962 132.0 
407.119019 173.0 
409.010468 341.0 
409.093475 16657.0 
409.157532 273.0 
409.471954 93.0 
409.895355 107.0 
410.049591 330.0 
410.097168 2420.0 
411.111267 297.0 
419.076935 99.0 
423.730927 86.0 
424.092468 248.0 
427.019958 200.0 
427.103424 8966.0 
428.108368 1063.0 
429.111755 88.0 
431.38739 277.0 
435.063965 187.0 
444.101715 82.0 
445.112213 5270.0 
446.125641 808.0 
448.111115 85.0 
452.095825 129.0 
463.123596 8953.0 
464.119659 540.0 
465.133667 198.0 
465.440216 130.0 
472.436707 137.0 
475.051117 556.0 
475.124969 19090.0 
475.845856 158.0 
475.94632 186.0 
476.057922 103.0 
476.129517 2840.0 
477.253174 97.0 
479.533325 247.0 
479.58783 159.0 
480.101959 78.0 
483.714325 666.0 
487.042633 188.0 
487.080353 423.0 
487.122162 2385.0 
489.129059 143.0 
490.144928 292.0 
494.811707 240.0 
499.631409 102.0 
501.051941 194.0 
501.105835 160.0 
501.155548 173.0 
501.71701 201.0 
502.134644 122.0 
503.12204 131.0 
503.807281 103.0 
504.086823 107.0 
504.131226 288.0 
504.553864 186.0 
504.743073 279.0 
504.959717 122.0 
505.136047 66221.0 
505.564484 109.0 
505.801453 129.0 
505.892242 114.0 
505.975281 70.0 
506.076508 170.0 
506.139252 16851.0 
506.269287 139.0 
506.372375 82.0 
507.147827 1884.0 
508.574188 139.0 
508.983765 264.0 
509.352692 207.0 
512.124512 229.0 
512.211365 104.0 
515.160522 581.0 
516.154785 230.0 
516.71936 145.0 
517.125427 373.0 
518.684448 86.0 
519.145081 187.0 
521.123779 161.0 
522.796936 149.0 
523.128479 355.0 
525.142517 135.0 
525.963379 109.0 
527.051636 90.0 
528.443787 139.0 
528.984314 442.0 
529.135193 22317.0 
529.224792 94.0 
529.274902 112.0 
529.713379 103.0 
529.950867 126.0 
530.138794 3329.0 
530.349304 126.0 
531.092102 144.0 
531.150635 1094.0 
533.151611 141.0 
535.139526 187.0 
535.492859 168.0 
536.31897 157.0 
540.36676 145.0 
541.046936 189.0 
541.134583 1916.0 
541.851685 131.0 
542.148254 768.0 
543.152161 477.0 
544.160889 91.0 
545.155212 173.0 
547.086609 129.0 
547.152161 369.0 
551.923523 136.0 
552.197144 114.0 
553.131653 431.0 
554.122742 369.0 
555.130188 126.0 
558.482239 108.0 
559.039612 307.0 
559.149475 10654.0 
560.151978 2024.0 
561.154236 1097.0 
563.134949 153.0 
567.09729 178.0 
570.550964 265.0 
571.147644 10698.0 
572.085938 116.0 
572.149353 2715.0 
573.159668 378.0 
585.765503 93.0 
588.937927 74.0 
589.015076 673.0 
589.157166 19982.0 
589.958618 164.0 
590.163208 4229.0 
591.160828 598.0 
592.394287 281.0 
593.807617 86.0 
600.233643 239.0 
602.801025 87.0 
603.08783 151.0 
606.388611 272.0 
606.778992 153.0 
606.926392 242.0 
607.038513 647.0 
607.169067 46050.0 
607.3125 251.0 
607.440552 129.0 
607.958008 179.0 
607.994263 165.0 
608.045532 467.0 
608.175537 11035.0 
608.61908 143.0 
609.062622 153.0 
609.099792 187.0 
609.177979 1348.0 
609.632812 74.0 
610.182922 636.0 
613.153137 112.0 
614.021851 143.0 
621.003113 172.0 
624.672119 90.0 
624.901917 158.0 
624.995422 245.0 
625.043579 447.0 
625.180115 64796.0 
625.332581 375.0 
625.91449 88.0 
626.013123 184.0 
626.185913 16962.0 
626.266174 332.0 
627.192322 4004.0 
628.123169 215.0 
628.17865 199.0 
629.372375 147.0 
630.35437 86.0 
649.176208 826.0 
649.773499 144.0 
650.172974 186.0 
651.180176 149.0 
663.170959 483.0 
665.16687 128.0 
667.186768 1469.0 
668.193604 211.0 
669.197083 210.0 
681.198669 482.0 
682.179993 150.0 
685.928223 133.0 
688.175232 97.0 
699.185242 152.0 
702.87323 128.0 
703.130859 77.0 
715.209106 159.0 
717.186523 105.0 
718.186829 314.0 
747.209656 498.0 
748.233948 178.0 
751.217712 119.0 
765.227234 275.0 
769.216553 461.0 
770.189148 224.0 
771.232727 112.0 
783.223389 1919.0 
784.219116 944.0 
785.152039 148.0 
785.222412 212.0 
787.226624 2619.0 
788.218506 383.0 
801.229248 4892.0 
801.80072 81.0 
802.182861 229.0 
802.236816 1380.0 
803.233826 318.0 
804.070068 90.0 
804.156677 113.0 
808.231018 105.0 
809.980774 159.0 
825.219055 267.0 
831.207214 149.0 
837.072449 80.0 
843.236877 5717.0 
844.077209 185.0 
844.235535 1174.0 
845.262451 261.0 
867.239685 137.0 
910.252563 380.0 
927.241821 771.0 
944.528625 150.0 
945.09491 196.0 
945.18866 97.0 
945.259705 2480.0 
945.354065 347.0 
946.257263 1253.0 
947.272339 177.0 
950.323669 136.0 
951.381775 189.0 
951.74884 112.0 
958.820679 132.0 
959.497314 149.0 
960.272644 80.0 
961.592957 169.0 
961.871338 86.0 
962.658508 180.0 
962.968933 168.0 
963.074402 714.0 
963.162048 1291.0 
963.273499 49613.0 
963.855164 220.0 
964.064392 626.0 
964.277222 16675.0 
964.728882 96.0 
965.285522 3993.0 
966.384399 75.0 
966.459534 122.0 
966.79425 96.0 
966.928955 113.0 
967.380554 94.0 
967.588562 70.0 
967.889954 84.0 
968.560852 150.0 
968.9104 187.0 
969.050293 150.0 
969.468628 183.0 
984.23761 79.0 
1375.143677 203.0 
1393.763184 273.0 
1398.509521 199.0 
1439.651123 288.0 
1539.28125 121.0 
1550.804077 133.0 
1552.929688 279.0 
1572.728638 252.0 
1574.518188 217.0 
1575.758911 201.0 
1577.360596 80.0 
1870.803955 175.0 
1886.194702 238.0 
1967.625122 266.0 
1981.661011 173.0 
END IONS

BEGIN IONS
TITLE=Scan Number: 61
PEPMASS=327.12201
CHARGE=1+
MSLEVEL=2
FILENAME=G11_RG11_01_2780.mzXML
INSTRUMENT=ion trap
SCANS=61
SMILES=C\C=C(\C)C1=CC(O)=C(C)C2=C1OC3=CC(O)=CC(C)=C3C(=O)O2
INCHIKEY=ZPPIKBUIYSSQEH-UITAMQMPSA-N
78.04821 296.0 
79.055244 610.0 
81.033142 209.0 
83.012627 4405.0 
83.874435 174.0 
84.017097 133.0 
84.571877 322.0 
85.015045 290.0 
90.907578 190.0 
91.053757 3896.0 
92.027679 185.0 
92.059784 353.0 
93.033249 288.0 
93.048447 179.0 
93.070976 553.0 
95.050789 2278.0 
95.08316 160.0 
97.395714 74.0 
100.029678 446.0 
103.046028 360.0 
105.044128 3288.0 
105.070328 1098.0 
107.049873 1247.0 
107.083504 835.0 
107.353294 179.0 
108.052338 198.0 
109.062935 340.0 
110.023499 157.0 
111.044594 174.0 
115.053909 744.0 
116.058647 189.0 
116.528603 184.0 
117.07151 357.0 
118.073654 161.0 
119.053642 2297.0 
119.084541 863.0 
120.06472 478.0 
120.190132 289.0 
120.437279 198.0 
121.063713 1809.0 
121.15461 127.0 
123.04277 754.0 
123.08149 216.0 
123.220863 369.0 
124.04631 115.0 
125.063721 148.0 
126.030586 92.0 
126.444199 221.0 
126.770134 365.0 
128.062973 642.0 
129.031876 233.0 
129.06842 2183.0 
130.078522 589.0 
131.049911 811.0 
131.084152 1133.0 
132.059021 122.0 
133.030441 133.0 
133.063278 1152.0 
134.036011 142.0 
135.044754 2879.0 
135.079529 1305.0 
136.048752 473.0 
136.091019 184.0 
137.058868 934.0 
137.091019 168.0 
137.51329 256.0 
140.095947 187.0 
141.068161 1409.0 
142.076294 205.0 
143.083588 473.0 
144.056427 615.0 
144.090134 234.0 
145.017014 94.0 
145.064011 2258.0 
145.103409 1284.0 
145.802322 217.0 
145.976013 276.0 
146.066666 625.0 
146.105698 191.0 
147.003922 222.0 
147.046844 743.0 
147.080444 790.0 
147.118027 147.0 
147.578537 138.0 
148.033157 200.0 
148.053024 159.0 
148.08725 628.0 
149.057053 474.0 
149.096786 311.0 
150.060501 204.0 
150.991364 178.0 
151.038986 19873.0 
151.07608 368.0 
152.045868 2009.0 
153.069351 1347.0 
154.041458 190.0 
154.081329 309.0 
155.059891 373.0 
155.083313 733.0 
156.055786 319.0 
157.064056 1037.0 
157.105713 275.0 
158.074417 2094.0 
159.04277 312.0 
159.079727 2011.0 
159.117523 742.0 
160.054688 1688.0 
160.086411 233.0 
160.121826 188.0 
161.028458 308.0 
161.05986 9365.0 
162.033112 147.0 
162.066742 1305.0 
163.038528 1497.0 
163.07634 984.0 
164.042252 720.0 
164.083176 446.0 
165.050598 391.0 
165.070221 649.0 
165.223984 205.0 
165.817245 196.0 
167.086914 332.0 
168.057404 243.0 
169.064941 710.0 
169.101852 310.0 
170.069626 488.0 
171.051147 245.0 
171.077759 859.0 
172.053467 560.0 
172.087952 1385.0 
172.964264 238.0 
173.060211 1029.0 
173.101212 1767.0 
173.901703 202.0 
174.068848 1124.0 
175.032059 388.0 
175.075897 2965.0 
176.044052 167.0 
176.078278 102.0 
177.055222 2720.0 
177.100143 482.0 
178.057877 495.0 
179.064575 279.0 
179.083435 478.0 
179.468643 144.0 
180.216583 127.0 
181.066406 1262.0 
181.107681 152.0 
182.073334 2014.0 
183.082779 1223.0 
184.051651 1822.0 
184.080536 281.0 
185.062607 3023.0 
185.098602 164.0 
186.068771 812.0 
186.108444 169.0 
186.86821 307.0 
186.934952 114.0 
187.038605 209.0 
187.075943 1492.0 
187.112869 238.0 
188.044998 651.0 
188.083725 375.0 
188.109665 170.0 
188.578842 143.0 
188.615234 128.0 
189.011398 106.0 
189.056198 9260.0 
189.092285 1300.0 
189.527023 85.0 
190.057449 1644.0 
190.102402 176.0 
191.032318 233.0 
191.073914 369.0 
191.466599 76.0 
193.073532 129.0 
195.075516 407.0 
196.085571 561.0 
197.056931 656.0 
197.097992 1497.0 
198.07193 768.0 
199.076218 3809.0 
200.046417 1294.0 
200.083481 2193.0 
201.054337 1165.0 
201.089905 2638.0 
201.182434 111.0 
202.058289 92.0 
202.096619 139.0 
203.034103 158.0 
203.067581 1340.0 
204.042526 135.0 
204.075485 168.0 
205.065399 89.0 
207.076752 144.0 
209.070053 279.0 
210.070862 711.0 
210.953461 72.0 
211.074753 2095.0 
211.105667 162.0 
212.049072 795.0 
212.085739 839.0 
212.914093 144.0 
213.055862 1759.0 
214.064438 2445.0 
214.098206 129.0 
214.994583 370.0 
215.07254 4517.0 
215.106979 6584.0 
216.077087 906.0 
216.108307 441.0 
217.052002 857.0 
217.09111 660.0 
218.051773 152.0 
221.042343 215.0 
222.101791 139.0 
223.069656 347.0 
224.082352 142.0 
225.0578 248.0 
225.092407 1246.0 
226.064728 275.0 
226.116135 119.0 
226.495453 154.0 
227.070923 13039.0 
227.59697 402.0 
228.079147 11829.0 
228.137863 228.0 
229.050568 508.0 
229.086334 3486.0 
229.125336 126.0 
230.058212 394.0 
230.08989 596.0 
230.128922 135.0 
231.072159 245.0 
233.065826 171.0 
237.050095 275.0 
237.089035 344.0 
237.738266 133.0 
238.059525 158.0 
238.100082 446.0 
239.065659 464.0 
239.109848 93.0 
240.0802 840.0 
240.19899 160.0 
241.08638 1549.0 
241.833115 141.0 
242.059875 529.0 
242.092529 1899.0 
242.17749 81.0 
242.57338 154.0 
242.679901 136.0 
242.799179 95.0 
242.96257 107.0 
243.064728 2909.0 
243.101517 30749.0 
243.417557 148.0 
244.07132 1426.0 
244.104279 3371.0 
244.349945 194.0 
245.080994 334.0 
245.705139 166.0 
246.085983 129.0 
247.171051 111.0 
248.070633 405.0 
249.093979 877.0 
251.050629 140.0 
252.08548 200.0 
253.088943 346.0 
253.128922 129.0 
254.05542 359.0 
254.090988 131.0 
254.124817 95.0 
255.065903 3786.0 
255.107788 109.0 
256.007812 162.0 
256.03476 117.0 
256.078766 1754.0 
256.933624 250.0 
257.044159 1289.0 
257.081909 5408.0 
258.053528 310.0 
258.089691 204.0 
259.062012 389.0 
259.099792 212.0 
262.504242 85.0 
263.107208 361.0 
265.082855 557.0 
266.096741 817.0 
267.105408 228.0 
268.10141 350.0 
269.077484 1863.0 
270.050568 135.0 
270.089508 1485.0 
271.009216 167.0 
271.060699 8360.0 
271.097473 20483.0 
272.002472 130.0 
272.064819 2887.0 
272.097961 2141.0 
273.076508 16035.0 
273.879303 130.0 
274.080017 1328.0 
274.387604 193.0 
275.912384 122.0 
275.962189 194.0 
277.927582 150.0 
278.279297 151.0 
279.064117 208.0 
280.071991 108.0 
281.081238 532.0 
281.122192 884.0 
282.090027 98.0 
282.123596 322.0 
283.037811 172.0 
283.099762 451.0 
284.065765 117.0 
284.109253 576.0 
284.366974 99.0 
285.076141 37863.0 
285.112915 1649.0 
285.236725 73.0 
285.330017 179.0 
285.933167 96.0 
286.004364 118.0 
286.081818 5356.0 
287.097809 248.0 
288.012573 140.0 
291.114716 230.0 
292.082733 292.0 
292.110352 316.0 
293.077789 362.0 
294.087036 4901.0 
295.094849 774.0 
296.740875 108.0 
297.02594 563.0 
297.077118 2305.0 
298.084137 2080.0 
298.290497 102.0 
298.324524 121.0 
299.090363 1245.0 
299.129059 494.0 
300.130798 456.0 
300.296234 110.0 
309.117157 3097.0 
311.090668 438.0 
312.108215 146.0 
325.106689 190.0 
327.040222 312.0 
327.123749 34815.0 
327.865875 229.0 
328.076141 400.0 
328.127014 4644.0 
330.159729 101.0 
330.847443 128.0 
345.529877 111.0 
414.693634 92.0 
1043.742676 100.0 
1720.225952 96.0 
1733.547852 67.0 
END IONS

BEGIN IONS
TITLE=Scan Number: 62
PEPMASS=344.14899
CHARGE=1+
MSLEVEL=2
FILENAME=G11_RG11_01_2780.mzXML
INSTRUMENT=ion trap
SCANS=62
SMILES=C\C=C(\C)C1=CC(O)=C(C)C2=C1OC3=CC(O)=CC(C)=C3C(=O)O2
INCHIKEY=ZPPIKBUIYSSQEH-UITAMQMPSA-N
72.804268 271.0 
83.013809 346.0 
91.054741 332.0 
92.305725 139.0 
95.052124 183.0 
105.045998 184.0 
105.068771 258.0 
107.048935 190.0 
119.055664 394.0 
120.059586 304.0 
121.06414 100.0 
122.949226 86.0 
123.092751 145.0 
127.056091 165.0 
127.940727 362.0 
134.037964 121.0 
135.043625 730.0 
139.034912 128.0 
141.05365 155.0 
144.093414 204.0 
147.045532 249.0 
149.062851 155.0 
151.038818 3299.0 
152.04068 202.0 
152.060928 204.0 
153.050491 313.0 
153.073135 300.0 
155.065353 245.0 
155.08638 389.0 
156.09288 466.0 
159.082153 161.0 
160.051086 199.0 
161.059692 444.0 
163.041336 531.0 
164.046204 283.0 
167.034119 141.0 
169.063644 166.0 
169.101257 355.0 
171.080902 333.0 
175.072113 302.0 
177.051666 155.0 
177.093552 332.0 
181.054092 216.0 
182.07811 136.0 
182.967484 330.0 
184.056473 112.0 
184.079132 139.0 
185.099686 208.0 
187.069992 177.0 
188.098038 396.0 
189.056183 1472.0 
193.090317 98.0 
197.096237 412.0 
199.078903 183.0 
200.086472 376.0 
201.048828 317.0 
201.086334 125.0 
202.057022 130.0 
203.073486 223.0 
210.070328 127.0 
210.104279 159.0 
211.069748 73.0 
214.060471 100.0 
215.071045 566.0 
215.107956 217.0 
216.072449 211.0 
217.098129 257.0 
219.079803 249.0 
222.106598 202.0 
223.069382 206.0 
224.089676 129.0 
225.064377 120.0 
225.097107 643.0 
227.02504 188.0 
227.074295 681.0 
228.072281 946.0 
229.8909 183.0 
232.092758 152.0 
237.129562 106.0 
238.09697 102.0 
239.113541 231.0 
240.142349 226.0 
240.252121 92.0 
241.086975 412.0 
242.102432 152.0 
243.101974 3601.0 
243.138382 139.0 
244.107773 291.0 
246.01088 161.0 
246.084488 143.0 
254.053497 114.0 
255.05896 161.0 
255.131546 127.0 
256.071228 177.0 
257.050446 162.0 
257.077515 737.0 
258.079376 155.0 
267.098236 201.0 
271.052368 462.0 
271.093964 2444.0 
272.052063 263.0 
272.102051 373.0 
273.077179 1343.0 
274.087219 171.0 
280.0401 159.0 
284.108948 175.0 
285.074921 2949.0 
285.17865 82.0 
286.075012 115.0 
294.046722 112.0 
294.086273 504.0 
299.095703 209.0 
300.127289 186.0 
309.108246 282.0 
327.125031 7175.0 
328.126617 495.0 
END IONS

BEGIN IONS
TITLE=Scan Number: 64
PEPMASS=395.04401
CHARGE=1+
MSLEVEL=2
FILENAME=G11_RG11_01_2780.mzXML
INSTRUMENT=ion trap
SCANS=64
SMILES=C\C=C(\C)C1=C(Cl)C(O)=C(C)C2=C1OC3=CC(O)=C(Cl)C(C)=C3C(=O)O2
INCHIKEY=FCMYLROGVKJIDN-ALCCZGGFSA-N
83.011543 137.0 
84.014359 182.0 
90.811279 189.0 
97.093483 114.0 
104.575912 227.0 
117.068336 659.0 
130.073776 143.0 
137.035309 198.0 
140.004852 129.0 
141.005905 96.0 
147.043625 169.0 
147.075424 166.0 
148.050873 186.0 
152.058258 102.0 
154.044724 100.0 
155.07428 113.0 
161.053787 107.0 
165.006393 114.0 
166.073959 129.0 
167.025009 162.0 
167.059326 165.0 
167.087479 209.0 
169.009659 197.0 
171.015945 175.0 
175.068359 121.0 
176.076706 158.0 
180.0867 172.0 
181.013855 217.0 
182.014938 159.0 
182.222885 200.0 
184.996994 1044.0 
185.040207 209.0 
185.107132 157.0 
187.000015 263.0 
189.675995 187.0 
191.084885 279.0 
193.038925 165.0 
196.998093 842.0 
197.063736 144.0 
198.066864 166.0 
198.105469 162.0 
201.059036 182.0 
202.05304 137.0 
207.019943 225.0 
209.102036 109.0 
211.047409 391.0 
211.116043 155.0 
212.082916 507.0 
213.044571 179.0 
220.04335 267.0 
221.054276 185.0 
223.020081 180.0 
224.118576 270.0 
225.009766 100.0 
225.089905 331.0 
232.062057 130.0 
232.088913 174.0 
232.963013 215.0 
234.03804 179.0 
239.075714 262.0 
239.111832 528.0 
239.944443 157.0 
240.073349 98.0 
240.110565 224.0 
245.034332 216.0 
247.029968 139.0 
247.055679 211.0 
252.114731 183.0 
256.976959 186.0 
258.041718 101.0 
259.052643 205.0 
260.035156 109.0 
260.06366 751.0 
261.065674 397.0 
267.101837 348.0 
268.111542 148.0 
274.043518 192.0 
275.043579 1497.0 
275.088196 763.0 
276.058014 1076.0 
278.094604 385.0 
283.029053 131.0 
288.052032 633.0 
289.057343 240.0 
290.049713 207.0 
291.052063 222.0 
296.101044 122.0 
298.035217 126.0 
299.03772 170.0 
302.016235 140.0 
303.042511 1219.0 
303.076691 1423.0 
304.053101 116.0 
304.085693 417.0 
305.000305 130.0 
305.091064 102.0 
306.035309 149.0 
311.029572 171.0 
316.051392 407.0 
317.044312 203.0 
319.057922 85.0 
324.998352 204.0 
326.045593 171.0 
329.027496 140.0 
331.072021 805.0 
332.078857 389.0 
334.084747 279.0 
339.018036 1695.0 
340.032593 332.0 
340.997742 1652.0 
341.997131 100.0 
342.993744 324.0 
351.016632 162.0 
359.067719 1780.0 
360.042694 221.0 
360.07547 508.0 
377.03186 174.0 
378.049927 246.0 
394.9841 326.0 
395.043152 2097.0 
396.04718 131.0 
398.970276 153.0 
END IONS

BEGIN IONS
TITLE=Scan Number: 65
PEPMASS=412.07101
CHARGE=1+
MSLEVEL=2
FILENAME=G11_RG11_01_2780.mzXML
INSTRUMENT=ion trap
SCANS=65
SMILES=C\C=C(\C)C1=C(Cl)C(O)=C(C)C2=C1OC3=CC(O)=C(Cl)C(C)=C3C(=O)O2
INCHIKEY=FCMYLROGVKJIDN-ALCCZGGFSA-N
79.057693 319.0 
82.984558 276.0 
83.011314 2096.0 
91.056839 140.0 
105.029945 184.0 
116.00354 169.0 
116.077049 294.0 
117.068756 369.0 
119.086952 447.0 
125.013123 189.0 
129.007278 219.0 
133.294937 287.0 
135.046661 237.0 
143.745651 270.0 
145.002502 236.0 
146.069977 304.0 
147.080154 596.0 
148.043472 131.0 
149.057266 160.0 
152.065659 113.0 
153.007629 333.0 
154.985413 199.0 
155.06189 170.0 
155.090439 393.0 
157.059464 260.0 
158.01033 217.0 
159.000793 126.0 
159.02153 135.0 
160.025497 132.0 
161.06279 190.0 
165.050064 200.0 
167.075241 144.0 
167.996552 166.0 
168.059113 189.0 
169.001434 568.0 
169.101257 430.0 
170.068954 191.0 
171.01976 155.0 
173.000443 136.0 
173.048248 230.0 
173.092773 170.0 
175.077225 223.0 
177.058456 160.0 
178.075455 169.0 
179.024094 118.0 
180.093185 183.0 
182.066391 222.0 
183.119934 555.0 
184.053802 213.0 
184.085022 166.0 
185.001282 3771.0 
186.004456 174.0 
186.993256 128.0 
187.033661 145.0 
191.08252 253.0 
193.040054 220.0 
195.019547 391.0 
195.081558 140.0 
195.119415 113.0 
196.090179 296.0 
196.998688 765.0 
197.097397 201.0 
198.006607 193.0 
198.045456 225.0 
198.061905 243.0 
202.053558 194.0 
204.036774 155.0 
205.037079 155.0 
207.082153 168.0 
209.095535 292.0 
211.019196 207.0 
211.057922 1050.0 
212.046463 230.0 
212.080811 1222.0 
213.054596 129.0 
215.011932 136.0 
220.952942 189.0 
221.024124 189.0 
223.015961 499.0 
224.084198 435.0 
224.11882 344.0 
224.878525 161.0 
224.985703 182.0 
225.03157 238.0 
225.08017 410.0 
226.063797 267.0 
226.100494 380.0 
227.107895 233.0 
231.015732 193.0 
232.025879 99.0 
234.045975 122.0 
235.07402 172.0 
236.024048 360.0 
238.039154 222.0 
239.105743 907.0 
239.328476 201.0 
240.082825 570.0 
240.11972 1465.0 
242.090134 176.0 
244.06221 567.0 
245.077362 144.0 
246.042221 297.0 
247.056808 1198.0 
248.061813 214.0 
249.018631 428.0 
249.085587 154.0 
251.031204 230.0 
251.097885 155.0 
253.090164 488.0 
254.088593 117.0 
255.071045 333.0 
256.535675 102.0 
256.9729 751.0 
257.072388 155.0 
258.04483 184.0 
259.01059 244.0 
259.054962 250.0 
259.088837 107.0 
260.056885 466.0 
260.581696 94.0 
261.02774 442.0 
261.067169 408.0 
261.096039 184.0 
261.996277 189.0 
262.058685 138.0 
263.031769 275.0 
264.082916 158.0 
266.093842 189.0 
267.103912 244.0 
268.071625 351.0 
268.11261 1366.0 
269.039612 179.0 
269.083801 189.0 
269.116455 187.0 
271.049103 119.0 
273.029755 546.0 
274.984253 245.0 
275.04718 1970.0 
275.081055 1480.0 
276.019562 119.0 
276.05899 893.0 
277.040161 432.0 
277.078552 442.0 
277.835876 190.0 
278.039001 189.0 
280.109619 155.0 
283.02771 150.0 
284.964935 262.0 
285.072235 156.0 
286.079926 246.0 
287.015289 164.0 
287.047302 225.0 
288.052551 706.0 
289.059326 603.0 
290.066559 713.0 
295.054779 107.0 
295.096954 144.0 
298.052917 366.0 
299.031891 536.0 
301.050659 156.0 
302.982666 124.0 
303.03949 1108.0 
303.077484 4618.0 
304.03476 161.0 
304.086823 290.0 
305.019989 531.0 
305.064575 100.0 
306.023651 307.0 
307.032074 159.0 
309.952179 176.0 
311.029083 541.0 
312.031433 314.0 
313.0271 200.0 
313.065918 1109.0 
314.068054 388.0 
315.066437 141.0 
316.045654 696.0 
316.085693 335.0 
317.054138 658.0 
318.087067 261.0 
319.040344 170.0 
322.46225 95.0 
324.067352 262.0 
325.053589 111.0 
325.113098 175.0 
327.035492 273.0 
331.078888 1844.0 
332.082794 655.0 
333.098053 140.0 
334.009003 152.0 
338.861755 251.0 
339.016937 5051.0 
339.551422 157.0 
340.02771 515.0 
340.935883 160.0 
340.999329 2837.0 
341.974396 248.0 
342.042511 213.0 
342.989594 587.0 
344.045074 606.0 
351.038208 139.0 
353.038788 321.0 
355.794464 184.0 
358.815643 320.0 
359.012299 216.0 
359.070221 2939.0 
360.070892 529.0 
364.006287 86.0 
365.997711 215.0 
367.008148 179.0 
367.052368 225.0 
367.343842 232.0 
369.052734 154.0 
369.873779 118.0 
377.032013 638.0 
395.045959 22130.0 
396.048065 2674.0 
397.042999 829.0 
412.218903 199.0 
436.054749 104.0 
END IONS

BEGIN IONS
TITLE=Scan Number: 67
PEPMASS=405.19101
CHARGE=1+
MSLEVEL=2
FILENAME=G11_RG11_01_2780.mzXML
INSTRUMENT=ion trap
SCANS=67
SMILES=COC1=C(O)C(O)=CC(CCC(CCCCC2=CC=C(O)C(O)=C2)OC(C)=O)=C1
INCHIKEY=ISMTYWQWKQRTNM-UHFFFAOYSA-N
77.03923 474.0 
78.393738 214.0 
79.055984 1303.0 
79.725143 154.0 
80.058083 376.0 
81.071548 263.0 
82.040146 546.0 
84.608932 150.0 
84.891335 121.0 
87.247047 385.0 
89.453041 162.0 
91.054665 334.0 
93.031937 221.0 
93.073257 147.0 
95.048676 762.0 
95.086815 471.0 
97.735588 98.0 
103.054581 3357.0 
103.554413 228.0 
105.04213 2944.0 
105.06707 424.0 
106.035698 150.0 
106.066811 208.0 
106.925461 161.0 
107.029839 99.0 
107.048706 3305.0 
108.051468 83.0 
108.834221 241.0 
109.02874 563.0 
110.036804 6976.0 
110.637207 350.0 
111.049858 603.0 
112.611 102.0 
114.887993 205.0 
115.026558 162.0 
115.05426 952.0 
116.056091 147.0 
116.906425 321.0 
117.070114 5865.0 
117.836868 304.0 
118.052567 191.0 
118.072708 544.0 
119.048973 361.0 
120.036415 180.0 
120.058632 302.0 
121.028336 337.0 
121.065605 379.0 
121.997856 221.0 
122.040222 353.0 
122.985046 201.0 
123.044525 80428.0 
123.141968 117.0 
124.028099 159.0 
124.047775 5518.0 
124.927536 217.0 
125.02887 277.0 
125.059731 2130.0 
125.121857 134.0 
125.853821 313.0 
126.033821 252.0 
126.061493 207.0 
126.42363 70.0 
128.061264 372.0 
129.068268 376.0 
130.044586 144.0 
130.071365 186.0 
131.049332 6660.0 
131.085205 880.0 
131.870377 155.0 
132.052032 377.0 
132.087402 157.0 
133.062134 918.0 
134.998993 170.0 
135.041901 192.0 
136.051132 108.0 
137.022934 136.0 
137.060471 2099.0 
137.852905 101.0 
138.03186 23203.0 
138.063599 170.0 
138.126877 130.0 
138.315872 86.0 
138.38327 151.0 
139.035629 1613.0 
139.883026 115.0 
140.039963 210.0 
141.057724 491.0 
141.252899 210.0 
143.051743 1189.0 
143.083649 359.0 
144.321014 132.0 
145.065414 11518.0 
145.09758 326.0 
146.0681 1255.0 
147.044037 2725.0 
147.077042 786.0 
148.075073 162.0 
148.906403 425.0 
149.060272 11222.0 
149.702393 120.0 
150.065582 956.0 
151.016983 201.0 
151.03714 310.0 
151.07019 172.0 
151.139374 170.0 
152.041275 259.0 
152.240417 120.0 
152.539551 146.0 
152.608932 157.0 
152.645386 228.0 
152.805359 192.0 
152.884415 167.0 
152.905396 278.0 
153.055161 231613.0 
153.118118 127.0 
153.276276 228.0 
153.526886 168.0 
153.825989 143.0 
153.872391 294.0 
154.059021 16692.0 
154.352219 78.0 
154.734039 138.0 
154.881699 99.0 
154.936111 114.0 
155.059708 1168.0 
155.247009 161.0 
155.281403 138.0 
155.314438 75.0 
155.600601 74.0 
156.059311 115.0 
157.06691 314.0 
157.101257 324.0 
157.725037 129.0 
158.072708 459.0 
159.078262 851.0 
159.115463 2033.0 
160.117783 158.0 
161.061096 1991.0 
161.881454 107.0 
162.073563 384.0 
162.138596 101.0 
163.005646 248.0 
163.076157 20201.0 
163.122849 241.0 
164.077057 1200.0 
164.670776 81.0 
165.062561 185.0 
165.115311 102.0 
167.070541 1030.0 
169.074905 122.0 
169.104477 711.0 
171.077454 309.0 
172.080399 191.0 
175.0811 354.0 
175.112244 1701.0 
176.11853 160.0 
177.023239 91.0 
177.089691 939.0 
179.071335 3211.0 
179.799942 143.0 
180.043564 191.0 
180.085815 231.0 
181.126495 140.0 
181.373749 210.0 
182.477097 98.0 
185.092682 584.0 
185.840088 84.0 
186.09816 313.0 
186.936157 146.0 
187.111633 6137.0 
187.998016 112.0 
188.119232 722.0 
189.0896 209.0 
189.131546 263.0 
190.136047 114.0 
191.069443 191.0 
193.085754 2627.0 
194.091629 449.0 
197.059799 243.0 
198.072128 242.0 
203.106445 1736.0 
204.104858 218.0 
205.081635 120.0 
205.121964 3437.0 
205.270905 269.0 
207.055145 210.0 
211.073425 252.0 
217.120132 556.0 
221.060104 162.0 
221.116592 368.0 
222.124039 190.0 
223.132217 584.0 
224.138748 87.0 
228.038864 148.0 
230.073135 179.0 
235.067825 279.0 
235.13446 946.0 
236.138153 138.0 
237.977875 172.0 
238.139175 166.0 
239.111465 259.0 
242.054169 197.0 
249.125961 114.0 
251.099747 88.0 
253.111465 176.0 
271.135834 223.0 
295.130219 150.0 
296.132843 140.0 
296.164795 236.0 
309.153595 85.0 
311.868286 215.0 
313.106689 275.0 
313.146179 1549.0 
314.144775 173.0 
327.160461 571.0 
330.403564 239.0 
343.785156 163.0 
344.763 189.0 
345.085266 480.0 
345.171722 21071.0 
345.457916 236.0 
346.174164 2355.0 
347.205444 164.0 
349.301819 161.0 
368.640869 104.0 
406.300232 138.0 
690.644043 79.0 
1141.438721 178.0 
1325.272949 263.0 
1441.884644 215.0 
1464.699829 235.0 
1465.950928 225.0 
1606.581177 396.0 
1676.543823 348.0 
1694.051025 86.0 
1816.182495 138.0 
1829.65918 165.0 
END IONS

BEGIN IONS
TITLE=Scan Number: 68
PEPMASS=422.21799
CHARGE=1+
MSLEVEL=2
FILENAME=G11_RG11_01_2780.mzXML
INSTRUMENT=ion trap
SCANS=68
SMILES=COC1=C(O)C(O)=CC(CCC(CCCCC2=CC=C(O)C(O)=C2)OC(C)=O)=C1
INCHIKEY=ISMTYWQWKQRTNM-UHFFFAOYSA-N
72.083092 320.0 
74.2351 299.0 
74.899086 234.0 
79.057091 176.0 
84.721245 191.0 
90.823196 155.0 
91.054062 521.0 
95.048965 213.0 
95.084526 211.0 
98.488068 362.0 
103.055847 1031.0 
105.042168 949.0 
105.068283 203.0 
106.072861 183.0 
107.04908 1971.0 
109.027428 558.0 
110.037338 1581.0 
110.913254 214.0 
111.040352 309.0 
114.443092 278.0 
117.070976 1774.0 
118.076157 269.0 
118.909599 211.0 
119.053299 581.0 
119.080101 293.0 
120.052528 194.0 
121.056786 364.0 
122.775749 110.0 
123.00779 949.0 
123.044258 43580.0 
123.59285 127.0 
123.889969 185.0 
124.021263 185.0 
124.047417 3377.0 
124.072365 178.0 
124.601143 127.0 
125.057289 984.0 
126.024155 183.0 
131.049637 3300.0 
131.082855 413.0 
131.215408 75.0 
132.055267 345.0 
132.096146 132.0 
132.583755 277.0 
133.061737 653.0 
135.04509 243.0 
135.116867 133.0 
136.357056 180.0 
137.057373 1408.0 
137.094849 206.0 
137.982315 166.0 
138.031525 5302.0 
138.890289 101.0 
139.036835 1514.0 
140.409821 237.0 
143.047455 413.0 
144.061539 172.0 
145.065552 6010.0 
146.073044 495.0 
147.044586 977.0 
147.086807 245.0 
148.916245 173.0 
149.06044 6410.0 
150.063812 519.0 
151.052948 180.0 
151.32695 97.0 
151.795822 109.0 
152.090744 132.0 
152.371735 87.0 
152.540771 120.0 
152.563187 194.0 
152.69838 296.0 
152.991882 200.0 
153.055115 139756.0 
153.536041 134.0 
153.618027 107.0 
153.86412 102.0 
154.01889 232.0 
154.058319 10020.0 
154.216949 166.0 
154.936691 76.0 
155.061813 909.0 
155.095123 175.0 
155.187881 151.0 
155.242828 132.0 
155.332031 125.0 
155.809662 96.0 
157.105927 148.0 
159.082977 1182.0 
159.118942 885.0 
160.122147 141.0 
161.057587 309.0 
162.079041 222.0 
163.075424 11056.0 
163.484894 160.0 
164.078033 909.0 
165.057281 118.0 
166.130646 87.0 
167.072128 713.0 
167.105667 268.0 
169.10585 107.0 
171.076355 165.0 
171.443649 79.0 
173.088837 85.0 
175.072067 193.0 
175.108139 684.0 
176.117203 385.0 
177.089874 393.0 
178.491165 443.0 
179.06749 2125.0 
179.19165 128.0 
179.44754 168.0 
181.089905 145.0 
185.102402 321.0 
187.112183 3627.0 
188.115845 510.0 
190.08699 113.0 
191.108978 583.0 
193.088379 904.0 
197.010101 108.0 
198.144226 85.0 
203.105438 1399.0 
205.123672 4474.0 
206.128281 395.0 
215.023926 165.0 
217.121246 332.0 
221.102127 204.0 
223.144974 356.0 
226.309799 172.0 
230.082962 196.0 
235.132446 962.0 
237.091049 134.0 
265.999786 133.0 
271.123444 77.0 
284.095428 150.0 
285.156494 139.0 
294.133209 307.0 
295.096832 161.0 
299.161041 266.0 
313.146729 1034.0 
314.150299 284.0 
327.156464 1067.0 
328.158875 165.0 
344.146393 161.0 
344.190399 185.0 
344.844086 194.0 
345.052673 250.0 
345.171051 38084.0 
345.395691 234.0 
345.559357 92.0 
346.17569 5884.0 
346.588959 105.0 
347.189941 237.0 
422.220001 165.0 
423.147308 125.0 
1523.916382 144.0 
1526.424805 253.0 
1649.447021 440.0 
1722.265747 221.0 
1727.203125 228.0 
1847.934448 335.0 
1998.493042 138.0 
END IONS

BEGIN IONS
TITLE=Scan Number: 70
PEPMASS=446.03299
CHARGE=1+
MSLEVEL=2
FILENAME=G11_RG11_01_2780.mzXML
INSTRUMENT=ion trap
SCANS=70
SMILES=C\C=C(\C)C1=C(Cl)C(O)=C(C)C2=C1OC3=C(Cl)C(O)=C(Cl)C(C)=C3C(=O)O2
INCHIKEY=XEQDVQKKHOQZEP-WAYWQWQTSA-N
76.322327 373.0 
83.012985 1653.0 
105.030205 168.0 
111.645615 306.0 
113.015755 182.0 
119.085838 351.0 
125.017845 144.0 
127.055511 130.0 
129.07077 137.0 
131.046341 221.0 
133.067993 367.0 
150.069473 272.0 
154.990891 205.0 
159.083725 107.0 
165.071762 178.0 
167.951355 149.0 
172.054016 146.0 
174.966721 174.0 
175.075195 305.0 
176.086838 185.0 
178.074799 124.0 
182.012146 215.0 
183.021515 311.0 
190.96489 197.0 
197.059937 144.0 
198.975021 143.0 
201.964172 224.0 
203.02536 139.0 
205.004181 211.0 
205.982941 212.0 
206.971329 115.0 
215.040329 163.0 
218.050018 120.0 
218.962021 1095.0 
220.957275 311.0 
223.077805 280.0 
223.113358 206.0 
227.983078 300.0 
228.978622 243.0 
230.971878 434.0 
231.057022 154.0 
232.026764 184.0 
233.033539 138.0 
233.077438 152.0 
234.047577 127.0 
234.068695 273.0 
236.07193 144.0 
238.960236 172.0 
239.025574 177.0 
239.999466 237.0 
240.115524 179.0 
240.972107 183.0 
241.000275 195.0 
241.037689 130.0 
244.006622 126.0 
244.972534 211.0 
246.043442 563.0 
246.958923 251.0 
247.053879 381.0 
248.027206 138.0 
249.075821 141.0 
255.967682 358.0 
258.963257 190.0 
259.059784 401.0 
260.069946 236.0 
261.035614 163.0 
261.095886 153.0 
262.939056 177.0 
264.993073 322.0 
265.08783 237.0 
267.002594 150.0 
269.017792 163.0 
272.052521 159.0 
272.986725 131.0 
273.038757 235.0 
273.071899 103.0 
274.038239 279.0 
274.070648 991.0 
275.089905 189.0 
276.032654 199.0 
276.068665 284.0 
278.014496 144.0 
278.971771 138.0 
278.999969 203.0 
279.032074 173.0 
279.102356 117.0 
281.017303 448.0 
282.022369 247.0 
283.000305 345.0 
285.692474 250.0 
286.041046 101.0 
286.082825 191.0 
286.976654 297.0 
287.048706 606.0 
288.053558 149.0 
289.060333 223.0 
290.033386 109.0 
290.938232 288.0 
292.937561 499.0 
293.036163 143.0 
293.740387 82.0 
294.01947 314.0 
294.995117 160.0 
295.032074 236.0 
295.966644 136.0 
298.039734 168.0 
301.064087 158.0 
302.072784 105.0 
306.997803 242.0 
308.008331 115.0 
309.013824 1791.0 
310.010529 296.0 
311.003876 498.0 
312.049713 371.0 
313.045746 204.0 
315.036163 154.0 
316.990021 123.0 
318.992798 185.0 
320.000671 292.0 
322.035309 263.0 
322.992371 195.0 
323.029022 437.0 
324.000946 180.0 
325.029175 158.0 
329.055115 283.0 
330.063263 120.0 
331.971985 141.0 
333.986359 132.0 
334.99762 153.0 
337.044525 1900.0 
338.017181 297.0 
338.052155 396.0 
339.986603 169.0 
340.985107 181.0 
341.055267 144.0 
344.053314 131.0 
344.985657 684.0 
345.981873 172.0 
346.040649 206.0 
349.023743 147.0 
350.0065 656.0 
351.010773 225.0 
351.983063 124.0 
353.006653 344.0 
358.071411 404.0 
359.969299 330.0 
365.033264 1502.0 
366.035889 154.0 
366.945557 268.0 
367.053253 218.0 
369.967926 113.0 
372.979462 753.0 
373.035583 174.0 
373.992462 125.0 
374.103607 428.0 
374.958527 1512.0 
375.017578 313.0 
375.958588 172.0 
375.992249 146.0 
376.046204 134.0 
376.94986 244.0 
378.005096 549.0 
386.988495 223.0 
392.792725 238.0 
392.933929 271.0 
392.975403 222.0 
393.032043 2124.0 
394.040588 903.0 
395.025635 201.0 
395.94043 169.0 
396.973633 203.0 
401.011749 452.0 
411.285187 131.0 
428.886993 175.0 
429.00647 8522.0 
430.004547 641.0 
430.949768 388.0 
431.008484 214.0 
444.324036 101.0 
471.032654 218.0 
END IONS

BEGIN IONS
TITLE=Scan Number: 71
PEPMASS=465.32101
CHARGE=1+
MSLEVEL=2
FILENAME=G11_RG11_01_2780.mzXML
INSTRUMENT=ion trap
SCANS=71
SMILES=C[C@H]([C@H](O)CCC(C)(C)O)[C@H]1CC[C@@]2(O)C3=CC(=O)[C@@H]4C[C@@H](O)[C@@H](O)C[C@]4(C)C3CC[C@]12C
INCHIKEY=UPEZCKBFRMILAV-DBDKQAFGSA-N
76.075409 129.0 
79.055367 604.0 
81.07103 6491.0 
81.09568 128.0 
82.072067 797.0 
83.093025 101.0 
85.621559 84.0 
86.410873 202.0 
86.639496 180.0 
91.05323 1268.0 
92.05674 174.0 
92.558365 210.0 
93.069473 1191.0 
94.072884 269.0 
94.958534 193.0 
95.085594 1962.0 
96.657394 241.0 
97.131042 115.0 
99.080772 3681.0 
99.960037 321.0 
103.054398 597.0 
105.046494 321.0 
105.071999 2230.0 
106.076271 250.0 
107.051369 441.0 
107.085968 2494.0 
108.089722 347.0 
109.063232 480.0 
109.101768 15375.0 
110.066101 119.0 
110.104362 573.0 
111.081017 552.0 
112.08564 246.0 
117.069191 1093.0 
119.058556 661.0 
119.086891 1672.0 
120.176575 204.0 
121.023743 163.0 
121.067078 323.0 
121.101128 2570.0 
122.070221 219.0 
122.107376 134.0 
123.079224 528.0 
123.117577 381.0 
124.082336 149.0 
124.11982 165.0 
125.097939 193.0 
127.110901 176.0 
129.067947 833.0 
130.07988 224.0 
131.052841 194.0 
131.086258 725.0 
133.071152 262.0 
133.09935 1049.0 
135.046188 162.0 
135.116547 1333.0 
137.061935 396.0 
137.095062 576.0 
137.132843 624.0 
138.066223 167.0 
139.080994 165.0 
139.108826 148.0 
141.080307 139.0 
143.083084 1770.0 
144.091507 179.0 
145.0634 565.0 
145.102432 3171.0 
146.066467 179.0 
147.08107 640.0 
147.117081 1066.0 
148.081039 231.0 
148.119308 331.0 
149.05751 263.0 
149.097122 375.0 
149.132233 472.0 
150.14064 131.0 
151.103973 164.0 
153.127197 211.0 
154.08139 130.0 
155.081848 481.0 
156.045105 179.0 
156.090591 197.0 
157.079605 220.0 
157.099243 1561.0 
158.072693 125.0 
158.209457 144.0 
159.056396 194.0 
159.080673 1203.0 
159.118225 2292.0 
160.122223 280.0 
161.053467 280.0 
161.093735 1303.0 
161.135391 1124.0 
162.070236 229.0 
162.10762 119.0 
163.112289 1070.0 
163.148743 328.0 
164.803696 92.0 
165.052597 203.0 
165.127884 428.0 
166.169495 169.0 
167.056992 167.0 
168.810379 246.0 
169.08551 221.0 
169.106232 394.0 
170.113617 213.0 
171.081329 625.0 
171.114716 727.0 
172.08783 209.0 
172.104752 314.0 
173.095108 2383.0 
173.136459 1012.0 
173.751617 82.0 
174.096939 563.0 
175.114014 1267.0 
175.14389 325.0 
176.115921 159.0 
176.151276 259.0 
177.129318 450.0 
177.162979 284.0 
179.111237 128.0 
179.143478 673.0 
181.099243 294.0 
181.158585 378.0 
182.068237 123.0 
182.111786 175.0 
183.115768 705.0 
184.091324 274.0 
184.129883 198.0 
185.092667 422.0 
185.133957 1482.0 
186.134415 477.0 
187.07132 192.0 
187.113037 1326.0 
187.146545 897.0 
188.104553 89.0 
188.151932 130.0 
189.08667 568.0 
189.166611 347.0 
190.099625 183.0 
191.108002 1692.0 
191.144333 99.0 
191.168533 187.0 
191.855591 138.0 
191.914703 388.0 
192.147446 221.0 
193.095856 179.0 
193.119812 326.0 
193.159592 182.0 
194.787231 381.0 
195.117233 300.0 
196.125885 258.0 
197.094315 112.0 
197.132935 762.0 
198.103928 193.0 
199.088348 248.0 
199.113678 810.0 
199.147018 578.0 
199.214264 169.0 
200.118973 124.0 
201.096786 113.0 
201.125046 520.0 
201.170822 291.0 
202.165207 149.0 
203.100891 240.0 
203.147491 685.0 
205.12532 490.0 
207.104385 283.0 
207.140472 164.0 
207.175323 222.0 
207.991898 199.0 
209.121521 392.0 
210.107452 106.0 
211.025406 97.0 
211.118927 694.0 
211.148773 162.0 
212.12178 168.0 
213.128647 1578.0 
213.161362 269.0 
215.092957 190.0 
215.144485 1398.0 
216.147842 108.0 
216.186325 154.0 
217.126907 846.0 
217.16275 269.0 
217.192245 123.0 
220.119965 230.0 
220.252258 282.0 
221.132446 208.0 
223.111954 188.0 
223.142715 236.0 
225.129303 510.0 
225.160355 201.0 
227.107315 137.0 
227.144485 1046.0 
228.153946 336.0 
229.123276 697.0 
229.16423 366.0 
229.195435 132.0 
230.150299 140.0 
231.139389 1111.0 
232.142624 111.0 
233.12442 165.0 
233.152695 1122.0 
233.183334 290.0 
235.121399 191.0 
235.146149 304.0 
237.125015 283.0 
237.165604 467.0 
239.130692 482.0 
239.17746 188.0 
240.176651 184.0 
241.158188 437.0 
241.198502 261.0 
242.173645 200.0 
243.136612 330.0 
243.174133 216.0 
245.154755 280.0 
246.122101 141.0 
246.166275 239.0 
247.100128 265.0 
247.134598 437.0 
247.664673 210.0 
248.148911 138.0 
249.148224 1358.0 
250.155502 274.0 
251.177658 140.0 
253.12561 155.0 
253.158691 277.0 
255.165329 200.0 
255.202042 145.0 
256.2146 149.0 
257.125305 116.0 
257.156891 206.0 
259.143402 352.0 
260.020966 146.0 
261.155151 811.0 
262.160522 181.0 
263.129486 249.0 
263.182251 644.0 
265.15387 694.0 
265.192322 107.0 
266.164398 113.0 
267.181824 324.0 
271.173889 282.0 
271.825287 119.0 
273.186951 90.0 
275.16626 251.0 
276.462769 100.0 
277.19519 143.0 
279.144348 214.0 
279.169312 201.0 
281.191895 257.0 
281.230713 115.0 
282.152893 220.0 
282.199646 150.0 
283.170776 870.0 
283.203552 341.0 
284.214172 143.0 
285.182281 1259.0 
286.192596 501.0 
287.171844 1064.0 
288.166992 230.0 
289.137634 190.0 
291.209381 192.0 
292.164154 332.0 
293.180328 225.0 
293.221008 185.0 
295.159973 166.0 
295.206421 439.0 
296.214539 163.0 
296.855316 288.0 
297.194122 213.0 
298.22879 197.0 
300.204376 117.0 
301.177612 385.0 
301.234222 322.0 
302.185638 490.0 
303.14212 164.0 
303.201843 1698.0 
307.240662 140.0 
309.177673 167.0 
309.223755 156.0 
310.216949 263.0 
311.195679 155.0 
312.206177 280.0 
313.170349 105.0 
313.215668 873.0 
314.19519 147.0 
315.228424 378.0 
320.207092 244.0 
321.199066 704.0 
323.196747 371.0 
325.217255 714.0 
326.915009 187.0 
327.183167 142.0 
327.233032 249.0 
329.210876 428.0 
330.07309 107.0 
331.095581 285.0 
331.139984 310.0 
331.228149 3073.0 
331.309631 217.0 
331.612793 139.0 
332.232788 1249.0 
333.248596 261.0 
334.258423 136.0 
335.237152 252.0 
337.218872 735.0 
337.257812 205.0 
338.161469 243.0 
338.217163 110.0 
342.855194 229.0 
343.229767 653.0 
344.232178 312.0 
347.22229 406.0 
348.222504 197.0 
348.255493 336.0 
352.27243 191.0 
353.229248 310.0 
355.226624 1481.0 
359.218567 205.0 
361.235687 784.0 
362.258911 260.0 
365.285736 169.0 
367.722565 103.0 
369.283234 458.0 
371.261871 278.0 
373.239502 1494.0 
373.773376 119.0 
374.244293 503.0 
375.26474 467.0 
376.283142 118.0 
381.236298 215.0 
383.264771 272.0 
384.302582 176.0 
387.289459 198.0 
388.265808 119.0 
391.241333 245.0 
393.278809 1420.0 
394.275177 375.0 
395.375153 130.0 
401.317627 141.0 
403.31543 109.0 
405.756531 197.0 
411.291931 4947.0 
412.297455 995.0 
428.246643 141.0 
428.616394 196.0 
429.30304 25985.0 
429.562653 413.0 
430.213593 260.0 
430.302917 9525.0 
430.393433 87.0 
430.625092 86.0 
431.311371 114.0 
432.273438 101.0 
433.009827 106.0 
433.061371 129.0 
447.313629 5958.0 
448.312805 922.0 
449.319977 184.0 
465.312622 455.0 
1061.623169 326.0 
END IONS

BEGIN IONS
TITLE=Scan Number: 72
PEPMASS=447.31
CHARGE=1+
MSLEVEL=2
FILENAME=G11_RG11_01_2780.mzXML
INSTRUMENT=ion trap
SCANS=72
SMILES=C[C@H]([C@H](O)CCC(C)(C)O)[C@H]1CC[C@@]2(O)C3=CC(=O)[C@@H]4C[C@@H](O)[C@@H](O)C[C@]4(C)C3CC[C@]12C
INCHIKEY=UPEZCKBFRMILAV-DBDKQAFGSA-N
71.087387 207.0 
79.053535 284.0 
81.070663 3404.0 
82.071747 377.0 
93.073196 706.0 
93.579414 110.0 
94.071388 301.0 
94.241196 114.0 
95.084526 599.0 
97.053665 193.0 
98.646324 304.0 
99.081375 968.0 
104.144196 174.0 
105.044586 156.0 
105.06768 343.0 
107.08358 289.0 
109.079201 219.0 
109.101685 4118.0 
110.105171 111.0 
110.166229 242.0 
111.044632 155.0 
111.08284 220.0 
111.116379 151.0 
116.93512 185.0 
117.068947 128.0 
119.073853 229.0 
121.062981 206.0 
121.101608 364.0 
123.124153 224.0 
130.079895 199.0 
131.08934 570.0 
132.092087 138.0 
133.102661 777.0 
135.119446 92.0 
137.057083 110.0 
137.134033 448.0 
138.621414 178.0 
139.067291 231.0 
141.072739 131.0 
142.799805 158.0 
143.087708 486.0 
144.056305 157.0 
144.093765 149.0 
144.122467 206.0 
145.065643 177.0 
145.102173 651.0 
146.107391 154.0 
147.056046 105.0 
147.11879 719.0 
148.095642 174.0 
149.096222 440.0 
149.13414 187.0 
151.043381 237.0 
152.984329 181.0 
154.075012 143.0 
155.085831 289.0 
157.097076 410.0 
158.072784 211.0 
158.107605 372.0 
159.124268 730.0 
160.118546 110.0 
161.097672 420.0 
161.12822 179.0 
162.099396 153.0 
162.131546 112.0 
163.113205 178.0 
165.12793 167.0 
168.095245 159.0 
169.101929 130.0 
170.109604 169.0 
171.053406 138.0 
171.079285 565.0 
171.113922 493.0 
172.126877 271.0 
173.095001 795.0 
174.100998 181.0 
175.11412 357.0 
176.081192 105.0 
177.130814 145.0 
179.089233 240.0 
179.137192 150.0 
181.063416 138.0 
181.102676 189.0 
183.067596 257.0 
183.113953 506.0 
185.097229 327.0 
186.092789 224.0 
187.115692 477.0 
187.150909 246.0 
189.05719 157.0 
189.094269 286.0 
191.108475 190.0 
191.139938 167.0 
192.093323 154.0 
196.083572 146.0 
197.129013 206.0 
198.109482 270.0 
199.112854 657.0 
199.144562 151.0 
200.115311 186.0 
201.124542 348.0 
201.159119 151.0 
202.125977 213.0 
203.102509 218.0 
205.163483 138.0 
209.131287 365.0 
211.108429 340.0 
211.148499 391.0 
213.057663 274.0 
213.128342 838.0 
213.163361 145.0 
215.15155 599.0 
217.121307 168.0 
217.173416 140.0 
218.076675 208.0 
219.076675 163.0 
219.129776 195.0 
223.152252 168.0 
225.127228 274.0 
225.166702 142.0 
227.143616 801.0 
227.178635 146.0 
228.589279 166.0 
229.153885 217.0 
231.133545 640.0 
232.141586 170.0 
237.103256 161.0 
237.129059 269.0 
237.167755 108.0 
238.132904 107.0 
239.146347 368.0 
239.178955 724.0 
240.150833 608.0 
241.110886 132.0 
241.158981 354.0 
243.130692 555.0 
245.12027 160.0 
245.156601 377.0 
249.138931 362.0 
250.161087 402.0 
251.156906 108.0 
251.183838 163.0 
253.157928 164.0 
255.132874 391.0 
255.179718 120.0 
257.154144 200.0 
258.161224 166.0 
259.157745 156.0 
261.164612 122.0 
261.194763 131.0 
263.127716 119.0 
263.1716 294.0 
267.133331 117.0 
267.174713 325.0 
268.180023 145.0 
269.182587 303.0 
273.654572 168.0 
276.179932 122.0 
277.151367 173.0 
279.168091 421.0 
283.067596 163.0 
283.144501 157.0 
283.171265 328.0 
284.178772 807.0 
285.186615 1077.0 
286.194733 190.0 
288.168182 128.0 
289.643982 235.0 
291.145355 214.0 
295.208405 551.0 
296.209961 301.0 
297.170868 137.0 
297.492157 207.0 
301.177643 2251.0 
302.121429 113.0 
302.190247 1478.0 
303.142883 192.0 
303.194702 2827.0 
304.191284 470.0 
308.205353 103.0 
309.184875 194.0 
310.227509 146.0 
311.127472 188.0 
311.195404 244.0 
313.137817 173.0 
313.212677 574.0 
314.223145 278.0 
314.94577 119.0 
315.195618 164.0 
315.245941 208.0 
319.179352 203.0 
319.237213 160.0 
321.110901 117.0 
321.150665 545.0 
321.645264 360.0 
326.221619 147.0 
327.19928 129.0 
328.195038 122.0 
329.214661 710.0 
330.196991 183.0 
331.183716 257.0 
331.227936 4720.0 
332.226685 686.0 
334.649323 108.0 
337.214508 216.0 
339.128815 128.0 
343.22995 305.0 
344.247864 231.0 
345.237762 136.0 
347.222504 224.0 
350.217438 86.0 
353.250122 228.0 
355.225861 712.0 
356.217621 189.0 
367.261017 111.0 
369.24942 326.0 
370.187317 179.0 
371.291534 147.0 
375.279938 307.0 
378.266388 99.0 
388.289917 158.0 
393.282532 158.0 
411.289124 2965.0 
412.291748 290.0 
429.120239 111.0 
429.302216 6788.0 
430.306183 3446.0 
447.314087 1469.0 
448.328613 258.0 
521.213074 92.0 
END IONS

BEGIN IONS
TITLE=Scan Number: 74
PEPMASS=233.117
CHARGE=1+
MSLEVEL=2
FILENAME=A10_BA10_01_2842.mzXML
INSTRUMENT=ion trap
SCANS=74
SMILES=C\C=C\C=C\C(=O)C1=C(O)C(C)=C(O)C(C)=C1
INCHIKEY=RKKPUBAAIGFXOG-YTXTXJHMSA-N
78.042984 159.0 
79.02372 248.0 
79.052826 1416.0 
80.058456 273.0 
80.70208 304.0 
81.06916 2208.0 
82.073105 229.0 
82.991989 165.0 
83.011627 1657.0 
83.049805 234.0 
84.272446 76.0 
91.054047 2244.0 
91.09771 69.0 
92.058144 148.0 
92.256462 111.0 
93.032204 187.0 
93.694756 169.0 
94.040207 499.0 
95.049545 4108.0 
95.085632 852.0 
96.052002 202.0 
97.028694 216.0 
102.050507 428.0 
103.052673 596.0 
104.146202 272.0 
105.044487 1683.0 
105.068443 1391.0 
106.048103 150.0 
106.072304 277.0 
107.047096 662.0 
107.087227 146.0 
108.055237 693.0 
109.06424 6866.0 
110.067543 429.0 
111.046631 133.0 
111.262085 64.0 
115.05526 905.0 
116.062111 832.0 
117.072647 709.0 
119.049377 2361.0 
119.081802 1179.0 
120.057663 386.0 
120.94577 151.0 
121.063545 1171.0 
121.100273 273.0 
122.0728 187.0 
122.59935 196.0 
123.050369 339.0 
123.078278 812.0 
123.34095 150.0 
128.062881 2308.0 
128.81192 104.0 
129.044617 205.0 
129.069916 3537.0 
130.075256 882.0 
131.049347 902.0 
131.084579 1436.0 
132.055954 178.0 
132.252884 103.0 
132.99118 146.0 
133.068756 656.0 
134.157532 153.0 
135.043701 285.0 
135.079865 7011.0 
135.113266 196.0 
135.193069 121.0 
135.355072 232.0 
136.089676 196.0 
136.584656 139.0 
137.013702 116.0 
137.059952 4632.0 
137.094543 411.0 
138.066391 1846.0 
139.065414 273.0 
139.288483 209.0 
140.059586 157.0 
140.077728 147.0 
141.070755 292.0 
141.74173 165.0 
142.073502 447.0 
143.088882 916.0 
144.054565 344.0 
144.092209 1436.0 
145.065323 609.0 
145.100601 491.0 
145.711731 245.0 
147.046356 419.0 
147.082092 415.0 
148.052612 139.0 
148.090027 893.0 
148.987839 199.0 
149.054428 214.0 
149.094574 1903.0 
150.002838 206.0 
150.099197 156.0 
150.68782 117.0 
151.008224 211.0 
151.075012 10682.0 
151.284286 85.0 
151.427917 77.0 
152.06694 730.0 
153.025299 246.0 
153.069351 1387.0 
153.394623 155.0 
154.075485 1365.0 
155.044601 146.0 
155.066513 192.0 
155.086548 360.0 
155.307831 233.0 
157.063599 2696.0 
157.101456 166.0 
158.075409 1007.0 
159.079788 2914.0 
159.117111 1430.0 
159.377304 137.0 
160.052002 759.0 
160.084381 327.0 
160.11087 140.0 
161.059402 6068.0 
161.097137 416.0 
162.064972 1429.0 
162.096542 119.0 
163.037399 361.0 
163.075302 1813.0 
163.348907 87.0 
164.052597 146.0 
164.078308 381.0 
165.054367 40049.0 
165.090591 2688.0 
165.246429 268.0 
165.395279 137.0 
166.023758 332.0 
166.057556 1921.0 
166.08873 95.0 
166.226471 216.0 
167.290787 150.0 
167.316513 116.0 
168.061264 121.0 
169.075409 521.0 
169.09816 628.0 
170.106293 136.0 
170.695572 164.0 
171.080109 408.0 
172.087311 5773.0 
173.069031 509.0 
173.093201 1000.0 
173.912262 152.0 
174.065323 1003.0 
175.074539 8998.0 
175.115463 224.0 
175.279495 162.0 
176.047089 88.0 
176.080688 3025.0 
176.118073 197.0 
177.053436 1132.0 
177.089661 3870.0 
177.128387 212.0 
178.074249 1017.0 
179.085495 417.0 
179.635895 123.0 
180.260147 133.0 
180.812836 242.0 
181.064896 1584.0 
182.072327 1974.0 
183.068161 802.0 
185.058075 525.0 
186.100815 92.0 
187.052246 220.0 
187.112747 6207.0 
188.08287 657.0 
189.056061 613.0 
189.088928 866.0 
190.060486 464.0 
190.098251 1960.0 
190.447479 68.0 
191.070221 2305.0 
191.103409 1512.0 
195.079391 99.0 
197.094711 543.0 
198.104813 193.0 
199.069427 519.0 
200.081314 1648.0 
201.091873 252.0 
203.069229 1470.0 
203.112274 276.0 
204.077438 5605.0 
204.379303 256.0 
205.037247 170.0 
205.085114 1164.0 
205.122284 8158.0 
206.122391 535.0 
207.612762 64.0 
213.090637 175.0 
214.431229 247.0 
215.075333 407.0 
215.106659 5920.0 
216.110733 499.0 
217.115311 139.0 
218.092514 1417.0 
233.039612 261.0 
233.06662 264.0 
233.116898 16675.0 
233.847519 136.0 
233.939758 139.0 
234.064987 81.0 
234.119507 677.0 
236.782394 197.0 
271.057037 89.0 
1002.934631 178.0 
1433.906372 191.0 
1626.120239 355.0 
1774.909302 302.0 
1783.503662 189.0 
1802.756592 436.0 
1909.288086 198.0 
1920.694336 189.0 
END IONS

BEGIN IONS
TITLE=Scan Number: 75
PEPMASS=249.14799
CHARGE=1+
MSLEVEL=2
FILENAME=A10_BA10_01_2842.mzXML
INSTRUMENT=ion trap
SCANS=75
SMILES=COC1=C(CO)C(CO)=CC(OCC=C(C)C)=C1C
INCHIKEY=DUMQPTRUYCCSEZ-UHFFFAOYSA-N
70.860962 97.0 
79.052315 559.0 
80.020592 183.0 
80.059937 523.0 
83.010612 202.0 
83.049355 192.0 
91.056076 683.0 
91.459946 210.0 
92.056145 361.0 
93.063492 151.0 
95.036201 291.0 
95.048393 307.0 
95.088104 364.0 
104.594162 83.0 
105.044884 455.0 
105.065361 221.0 
107.047859 345.0 
108.055901 449.0 
109.064217 2276.0 
111.072693 197.0 
121.066025 1668.0 
122.070847 133.0 
123.043098 563.0 
123.081139 1385.0 
124.083984 368.0 
133.061111 278.0 
135.080124 251.0 
136.052567 245.0 
136.08049 185.0 
137.058456 431.0 
138.067886 2803.0 
139.073013 188.0 
148.050919 145.0 
151.074371 3624.0 
153.090088 1595.0 
161.821487 93.0 
163.082794 318.0 
165.054443 370.0 
176.704163 124.0 
179.070465 196.0 
181.085678 7446.0 
182.086304 508.0 
1684.94519 237.0 
1850.511108 157.0 
END IONS

BEGIN IONS
TITLE=Scan Number: 76
PEPMASS=371.14899
CHARGE=1+
MSLEVEL=2
FILENAME=A10_BA10_01_2842.mzXML
INSTRUMENT=ion trap
SCANS=76
SMILES=COC1=C(O)C=CC(=C1)C2CC(=O)C3=C(O)C(CC=C(C)C)=C(O)C=C3O2
INCHIKEY=GWVGVAPNTKLROZ-UHFFFAOYSA-N
70.454742 153.0 
75.048546 219.0 
79.017441 342.0 
81.032745 2314.0 
82.035416 230.0 
82.722862 262.0 
82.821899 70.0 
83.867111 333.0 
87.257889 201.0 
89.589737 87.0 
91.052162 442.0 
92.996506 3648.0 
93.069054 173.0 
94.041054 184.0 
95.008835 146.0 
95.478424 297.0 
97.028015 2145.0 
98.368347 118.0 
99.00695 3345.0 
99.261612 106.0 
100.010872 176.0 
102.444572 285.0 
102.720139 166.0 
107.033569 166.0 
107.049011 261.0 
108.743622 293.0 
109.028191 2695.0 
110.82756 126.0 
110.953865 90.0 
110.988914 149.0 
111.009613 835.0 
111.352203 322.0 
112.010231 166.0 
113.096046 139.0 
117.015335 862.0 
119.048088 913.0 
120.050613 181.0 
121.025764 315.0 
122.036171 448.0 
122.650543 243.0 
123.006935 7136.0 
124.009483 249.0 
127.036224 80.0 
127.228081 203.0 
129.06781 297.0 
130.995956 172.0 
135.046555 210.0 
136.049561 476.0 
137.022034 6343.0 
137.057938 3903.0 
137.144745 271.0 
137.387802 108.0 
138.031982 556.0 
138.062698 677.0 
139.053757 246.0 
140.573395 109.0 
140.951187 75.0 
141.017365 13984.0 
141.049774 181.0 
141.343277 234.0 
141.995117 230.0 
142.019577 643.0 
142.05928 178.0 
143.028534 270.0 
143.198425 190.0 
145.026093 370.0 
145.059784 121.0 
146.027573 203.0 
147.008087 737.0 
149.059479 111.0 
150.703598 130.0 
151.020081 321.0 
151.040741 1204.0 
151.074615 9825.0 
152.078796 609.0 
152.948563 129.0 
155.031219 921.0 
159.027374 169.0 
162.064926 167.0 
163.035904 514.0 
163.653412 103.0 
163.833084 157.0 
163.959579 245.0 
164.172531 189.0 
164.381866 241.0 
164.413467 106.0 
164.439102 119.0 
164.476517 202.0 
164.651001 200.0 
164.742798 148.0 
164.797119 345.0 
164.895172 267.0 
165.017639 283961.0 
165.086411 473.0 
165.177597 148.0 
165.257202 158.0 
165.316101 163.0 
165.647141 156.0 
165.736282 247.0 
165.824158 347.0 
165.911194 348.0 
165.964355 144.0 
166.021271 20616.0 
166.090164 156.0 
166.195145 155.0 
166.268692 82.0 
166.362656 83.0 
166.547272 126.0 
166.578674 159.0 
166.606415 100.0 
166.833664 101.0 
167.017838 659.0 
167.082794 144.0 
167.142761 108.0 
167.304291 220.0 
167.338593 97.0 
167.379593 193.0 
167.456497 216.0 
169.580688 109.0 
169.735199 86.0 
173.843048 91.0 
174.085464 74.0 
174.317581 117.0 
177.053085 261.0 
178.058701 132.0 
178.261475 122.0 
178.36731 92.0 
179.029007 693.0 
179.06192 167.0 
181.011063 134.0 
182.066391 161.0 
182.603622 112.0 
182.965775 433.0 
183.027908 45247.0 
183.384811 69.0 
183.419769 108.0 
183.585312 138.0 
183.61795 184.0 
184.032898 3747.0 
186.038589 215.0 
187.083694 119.0 
188.080322 102.0 
191.03334 5157.0 
191.156647 93.0 
191.459702 148.0 
192.086578 112.0 
195.043793 385.0 
197.898453 94.0 
198.063522 307.0 
199.046066 141.0 
201.051971 292.0 
206.042511 344.0 
208.220444 140.0 
213.041077 262.0 
214.062042 191.0 
215.066315 145.0 
216.611679 165.0 
219.085632 143.0 
221.080048 4683.0 
222.081009 174.0 
227.066101 732.0 
230.746552 95.0 
231.064163 177.0 
239.031982 123.0 
239.091278 383.0 
240.032272 219.0 
241.04631 215.0 
242.051697 520.0 
247.095505 128.0 
254.058533 117.0 
255.021362 86.0 
257.058014 354.0 
259.567627 121.0 
268.801788 131.0 
269.034973 111.0 
269.057373 204.0 
269.081543 375.0 
269.604065 190.0 
273.076172 971.0 
279.091217 175.0 
282.073853 202.0 
283.781342 92.0 
284.947906 117.0 
295.064941 140.0 
297.07785 1902.0 
298.08136 843.0 
299.049225 305.0 
303.084869 200.0 
304.096039 245.0 
307.816742 125.0 
309.070496 209.0 
313.065125 496.0 
314.072968 566.0 
314.377563 189.0 
314.706848 99.0 
314.76474 82.0 
314.917542 153.0 
314.983887 110.0 
315.086243 77842.0 
315.481201 129.0 
316.088623 8291.0 
317.096588 122.0 
318.238953 152.0 
318.308014 102.0 
319.287354 117.0 
320.924988 198.0 
323.082062 596.0 
352.120117 286.0 
353.125214 118.0 
355.346893 78.0 
371.151276 335.0 
371.20462 179.0 
372.151184 120.0 
579.963379 96.0 
598.036682 82.0 
806.69104 82.0 
1508.838989 231.0 
1537.021484 181.0 
1653.741943 224.0 
1691.072021 224.0 
1693.677612 256.0 
1718.223999 204.0 
1823.884399 185.0 
1935.248291 119.0 
1951.010986 120.0 
1951.167236 153.0 
1957.772461 84.0 
1960.682007 100.0 
END IONS

BEGIN IONS
TITLE=Scan Number: 77
PEPMASS=377.159
CHARGE=1+
MSLEVEL=2
FILENAME=A10_BA10_01_2842.mzXML
INSTRUMENT=ion trap
SCANS=77
SMILES=COC1=C(C=C2C=CC(=O)OC2=C1)C(OC(=O)C=C(C)C)C(O)C(C)(C)O
INCHIKEY=JQBVDJFDZQVCGH-UHFFFAOYSA-N
83.04821 2417.0 
88.360718 172.0 
95.048187 220.0 
104.063194 326.0 
114.105133 134.0 
115.053719 140.0 
117.069633 302.0 
118.042862 171.0 
119.045624 198.0 
121.063202 766.0 
128.063858 128.0 
131.028397 201.0 
131.047897 1214.0 
133.062881 202.0 
134.035934 210.0 
135.039185 191.0 
135.079178 1102.0 
145.039597 165.0 
146.03334 289.0 
147.040802 281.0 
147.124451 78.0 
149.057831 423.0 
154.482178 108.0 
159.044434 280.0 
160.051376 753.0 
161.056625 1685.0 
162.030319 100.0 
162.065506 170.0 
168.071777 142.0 
171.11293 129.0 
174.031357 87.0 
175.040527 821.0 
175.077072 428.0 
176.04451 1115.0 
177.036942 200.0 
177.057404 543.0 
178.045273 182.0 
185.066406 244.0 
187.011642 156.0 
187.036911 539.0 
188.054138 400.0 
189.011444 399.0 
189.052536 1045.0 
190.02771 162.0 
190.061142 961.0 
191.031998 4862.0 
191.070953 1257.0 
192.163849 256.0 
197.05661 135.0 
201.051956 193.0 
202.063217 171.0 
203.031113 342.0 
204.039444 427.0 
205.048843 10420.0 
205.139862 153.0 
206.054977 2034.0 
206.255585 200.0 
207.027451 403.0 
207.063385 845.0 
207.322174 134.0 
217.067596 128.0 
217.866211 109.0 
218.353424 125.0 
218.903336 233.0 
219.063446 16560.0 
219.300201 332.0 
220.067169 926.0 
220.373611 103.0 
221.072739 172.0 
228.063171 326.0 
229.068481 203.0 
231.100876 1065.0 
244.072006 145.0 
245.081772 181.0 
259.09433 322.0 
261.067719 78.0 
277.108734 836.0 
278.10733 96.0 
289.073486 100.0 
295.084961 125.0 
295.119202 273.0 
320.152527 190.0 
343.034027 276.0 
346.139221 99.0 
377.040863 82.0 
377.084656 302.0 
377.159271 27310.0 
378.163025 3428.0 
END IONS

BEGIN IONS
TITLE=Scan Number: 80
PEPMASS=242.175
CHARGE=1+
MSLEVEL=2
FILENAME=A9_RA9_01_2740.mzXML
INSTRUMENT=ion trap
SCANS=80
SMILES=CCC(C)(O)C(CO)NC(=O)C(\C)=C\C=C\C
INCHIKEY=PHCDULUANYZTRK-RMTFUQJTSA-N
70.049789 362.0 
70.064804 565.0 
70.242126 293.0 
70.3536 259.0 
71.066132 95.0 
74.466805 208.0 
75.938072 107.0 
76.106468 184.0 
76.191948 63.0 
76.27037 137.0 
77.037544 1288.0 
77.084671 158.0 
77.382393 326.0 
77.841881 200.0 
78.532539 135.0 
78.653519 56.0 
78.941727 108.0 
79.053703 61250.0 
79.405869 131.0 
79.539185 67.0 
79.65387 55.0 
80.057335 2912.0 
80.105225 296.0 
80.201996 189.0 
80.426071 230.0 
80.529152 250.0 
80.618561 51.0 
80.941483 209.0 
81.038216 403.0 
81.069572 85569.0 
81.205086 54.0 
81.31765 138.0 
81.523392 68.0 
81.551323 49.0 
81.659233 106.0 
81.879913 181.0 
81.94413 87.0 
81.976669 88.0 
82.019707 98.0 
82.045609 212.0 
82.073441 4358.0 
82.179893 63.0 
82.466347 102.0 
82.636589 83.0 
82.720192 88.0 
82.821236 56.0 
83.085144 249.0 
83.109962 93.0 
83.319496 60.0 
83.610405 79.0 
84.280563 139.0 
86.094429 745.0 
86.156334 54.0 
86.830338 85.0 
91.020958 219.0 
91.054749 1149.0 
93.041641 415.0 
93.055367 622.0 
94.059486 350.0 
95.048988 1725.0 
96.044403 209.0 
96.07959 231.0 
96.763176 143.0 
97.054871 1500.0 
97.097137 55.0 
98.059402 631.0 
98.095802 1316.0 
102.260056 59.0 
105.013573 509.0 
105.045273 6133.0 
105.567284 182.0 
106.047775 1338.0 
107.074242 594.0 
108.081947 1964.0 
108.772545 179.0 
109.031113 332.0 
109.065308 61702.0 
109.133827 216.0 
109.458954 49.0 
110.068604 2363.0 
111.06646 292.0 
116.107887 428.0 
121.308418 113.0 
121.382202 194.0 
122.091393 230.0 
123.066277 157.0 
124.07399 164.0 
126.091698 20982.0 
126.126656 126.0 
126.181305 120.0 
126.233719 119.0 
126.43309 57.0 
127.094452 956.0 
146.097672 164.0 
150.091949 322.0 
150.125641 211.0 
162.090836 90.0 
162.968521 200.0 
163.151321 123.0 
167.259506 102.0 
194.153091 2318.0 
195.140488 309.0 
204.588974 214.0 
206.154816 8211.0 
207.095581 263.0 
207.139679 2136.0 
208.653473 121.0 
223.603577 81.0 
224.074036 76.0 
224.09613 154.0 
224.16481 25282.0 
225.170746 1432.0 
242.1465 140.0 
242.17955 80.0 
1206.016113 227.0 
1420.43396 132.0 
1447.134033 261.0 
1492.411499 232.0 
1595.712402 210.0 
1617.646118 214.0 
1622.359985 268.0 
1627.802124 213.0 
1629.032959 210.0 
1655.256958 224.0 
1657.033569 175.0 
1676.165527 212.0 
1727.353271 123.0 
1776.657349 368.0 
1783.314453 175.0 
1886.104004 345.0 
1893.054565 215.0 
1983.570801 250.0 
END IONS

BEGIN IONS
TITLE=Scan Number: 81
PEPMASS=224.164
CHARGE=1+
MSLEVEL=2
FILENAME=A9_RA9_01_2740.mzXML
INSTRUMENT=ion trap
SCANS=81
SMILES=CCC(C)(O)C(CO)NC(=O)C(\C)=C\C=C\C
INCHIKEY=PHCDULUANYZTRK-RMTFUQJTSA-N
79.052902 3409.0 
81.068573 5428.0 
81.742523 149.0 
82.069962 259.0 
89.548241 265.0 
91.053246 193.0 
91.921234 202.0 
95.049339 142.0 
96.044556 156.0 
96.079041 235.0 
109.065742 3977.0 
126.089951 2052.0 
134.917557 176.0 
134.993958 224.0 
153.997223 185.0 
161.94986 211.0 
194.151855 121.0 
206.153595 329.0 
207.138809 119.0 
215.932663 116.0 
224.165024 1543.0 
END IONS

BEGIN IONS
TITLE=Scan Number: 82
PEPMASS=273.07501
CHARGE=1+
MSLEVEL=2
FILENAME=A9_RA9_01_2740.mzXML
INSTRUMENT=ion trap
SCANS=82
SMILES=CC1=CC(O)=C2C(OC(=O)C2=C1)C3=C(O)C=CC=C3O
INCHIKEY=GYCHRCQMZRMPJA-UHFFFAOYSA-N
77.037041 153.0 
79.022476 624.0 
95.012955 182.0 
95.040901 209.0 
99.411598 285.0 
103.055344 833.0 
104.062248 169.0 
105.044258 479.0 
107.033005 240.0 
107.047058 295.0 
121.063988 79.0 
125.05957 213.0 
131.047119 1602.0 
132.054779 695.0 
135.046051 694.0 
145.063873 161.0 
151.113159 117.0 
152.98999 124.0 
153.068787 194.0 
155.050156 232.0 
155.063858 250.0 
159.042542 408.0 
161.022125 98.0 
161.400452 92.0 
163.039612 2127.0 
168.061981 155.0 
173.082993 506.0 
174.510864 197.0 
181.072388 85.0 
183.502747 135.0 
184.076981 146.0 
187.012344 192.0 
187.038513 2456.0 
188.046204 307.0 
194.077682 123.0 
196.017761 130.0 
199.08139 459.0 
204.027466 260.0 
205.049286 1433.0 
206.049301 141.0 
207.323257 168.0 
209.053177 157.0 
210.06488 156.0 
212.07103 137.0 
213.059204 303.0 
219.952652 141.0 
226.066605 102.0 
227.074814 1095.0 
229.083084 174.0 
239.041 326.0 
245.034409 158.0 
248.064514 136.0 
255.066315 2681.0 
256.059601 278.0 
271.02475 196.0 
273.066711 139.0 
275.060364 149.0 
283.026306 111.0 
285.010223 177.0 
285.044067 503.0 
286.04718 250.0 
301.443787 153.0 
303.053497 473.0 
321.073822 342.0 
347.044342 366.0 
365.04657 155.0 
409.035217 122.0 
END IONS

BEGIN IONS
TITLE=Scan Number: 83
PEPMASS=290.10199
CHARGE=1+
MSLEVEL=2
FILENAME=A9_RA9_01_2740.mzXML
INSTRUMENT=ion trap
SCANS=83
SMILES=CC1=CC(O)=C2C(OC(=O)C2=C1)C3=C(O)C=CC=C3O
INCHIKEY=GYCHRCQMZRMPJA-UHFFFAOYSA-N
77.037392 417.0 
79.051682 506.0 
80.056114 165.0 
95.012779 1276.0 
95.0485 142.0 
96.017258 585.0 
102.976814 351.0 
103.05233 1121.0 
105.043594 566.0 
107.04879 465.0 
115.054512 192.0 
121.063126 127.0 
129.037796 211.0 
131.048798 6486.0 
132.053833 577.0 
135.044144 438.0 
137.030518 267.0 
142.076569 169.0 
143.088287 203.0 
152.065216 120.0 
153.071671 454.0 
154.077621 223.0 
159.043091 1757.0 
161.061386 164.0 
163.038834 9111.0 
164.040558 540.0 
165.055725 99.0 
168.033188 276.0 
168.061707 385.0 
169.066055 141.0 
171.083069 558.0 
171.767975 184.0 
179.039429 207.0 
181.062775 677.0 
183.08255 175.0 
184.049118 183.0 
184.082123 208.0 
185.037582 122.0 
185.060654 163.0 
186.831665 93.0 
187.038086 6664.0 
187.067398 289.0 
188.040787 448.0 
199.071793 578.0 
205.04834 6196.0 
206.051712 408.0 
207.49292 243.0 
209.055664 215.0 
211.07692 264.0 
213.050873 180.0 
227.069824 3905.0 
228.073532 191.0 
229.087387 221.0 
237.056351 256.0 
255.065857 8893.0 
255.934113 194.0 
256.068542 1416.0 
256.826172 137.0 
273.07666 1429.0 
274.075592 339.0 
296.059937 101.0 
1399.099731 260.0 
1755.447754 108.0 
END IONS

BEGIN IONS
TITLE=Scan Number: 84
PEPMASS=286.216
CHARGE=1+
MSLEVEL=2
FILENAME=A9_RA9_01_2740.mzXML
INSTRUMENT=ion trap
SCANS=84
SMILES=CCCCCCCCCC1=CC(=O)C2=CC=CC=C2N1C
INCHIKEY=XIGBBPQAXHSVSN-UHFFFAOYSA-N
70.059006 339.0 
70.150848 392.0 
70.802116 130.0 
71.085129 410.0 
71.257355 154.0 
72.413635 349.0 
72.457024 228.0 
72.501007 246.0 
72.798592 218.0 
73.263893 245.0 
73.517029 42.0 
73.84565 162.0 
74.054314 165.0 
74.458466 313.0 
74.511398 65.0 
74.525024 208.0 
74.742691 91.0 
75.227898 89.0 
75.388779 194.0 
75.462288 116.0 
75.51429 177.0 
75.630554 263.0 
75.680145 172.0 
75.973625 268.0 
76.02903 54.0 
76.096436 225.0 
76.380745 298.0 
76.821442 367.0 
77.036987 829.0 
77.092262 180.0 
77.221214 25.0 
77.233627 188.0 
77.334404 205.0 
77.509964 282.0 
77.692726 370.0 
78.04657 1704.0 
78.160332 177.0 
79.018044 31.0 
79.051369 264.0 
79.611565 190.0 
79.823837 119.0 
80.046143 239.0 
80.251968 206.0 
80.383476 307.0 
80.511017 133.0 
81.472542 225.0 
81.942123 131.0 
82.027252 1957.0 
82.064156 180.0 
82.121887 161.0 
82.194427 300.0 
82.421234 147.0 
82.557899 24.0 
82.968597 52.0 
83.223679 257.0 
83.437881 228.0 
83.657822 141.0 
84.266724 210.0 
84.302849 147.0 
84.621513 131.0 
85.174789 187.0 
85.356697 188.0 
85.488861 279.0 
85.716103 186.0 
85.845901 72.0 
86.369911 226.0 
86.694748 82.0 
87.216438 34.0 
87.275772 317.0 
87.798187 231.0 
87.811798 113.0 
88.000671 204.0 
88.056206 55.0 
88.704155 177.0 
89.037529 348.0 
89.276909 288.0 
89.336601 91.0 
89.896622 227.0 
90.048019 613.0 
90.080124 310.0 
90.279274 365.0 
90.454651 173.0 
90.623665 172.0 
90.790787 162.0 
90.955307 108.0 
91.055801 726.0 
91.423866 206.0 
91.564148 182.0 
91.799454 142.0 
91.814583 158.0 
92.048271 171.0 
92.064499 112.0 
92.118958 236.0 
92.366875 164.0 
92.473763 274.0 
92.697533 295.0 
93.032356 132.0 
93.057655 143.0 
93.416382 179.0 
93.616386 270.0 
93.685326 241.0 
93.711761 255.0 
94.399025 208.0 
94.565376 82.0 
95.048073 569.0 
95.096954 206.0 
95.304497 137.0 
95.629333 94.0 
95.910309 232.0 
95.978386 151.0 
96.039917 204.0 
96.215263 179.0 
96.351532 156.0 
96.464699 154.0 
96.682877 243.0 
96.808006 347.0 
97.197098 212.0 
97.272667 220.0 
98.213669 223.0 
98.226974 288.0 
98.648338 285.0 
98.712288 197.0 
98.967552 192.0 
99.386642 276.0 
99.502739 124.0 
100.15889 253.0 
100.196121 241.0 
100.30497 77.0 
100.561577 314.0 
101.097542 229.0 
101.296906 269.0 
101.416626 224.0 
101.716515 191.0 
102.042747 334.0 
102.116913 128.0 
102.346016 153.0 
102.737923 280.0 
102.782143 199.0 
102.818108 215.0 
102.836784 246.0 
103.055008 3409.0 
103.267944 102.0 
103.379738 287.0 
103.479485 52.0 
103.606155 131.0 
103.654076 286.0 
103.692139 91.0 
104.060493 20294.0 
104.431328 88.0 
104.785034 78.0 
104.82077 208.0 
105.001419 233.0 
105.037933 3902.0 
105.117058 240.0 
105.136398 68.0 
105.292236 358.0 
105.499603 145.0 
105.63765 137.0 
105.764648 117.0 
105.898285 53.0 
105.967041 157.0 
106.038353 264.0 
106.066132 2134.0 
106.724854 233.0 
107.069496 228.0 
108.237991 243.0 
108.657463 226.0 
109.264175 228.0 
109.442093 169.0 
109.509033 211.0 
110.190765 96.0 
111.131424 211.0 
111.370255 189.0 
111.416611 286.0 
111.463699 33.0 
112.245522 544.0 
112.383362 96.0 
112.635918 218.0 
113.102036 113.0 
113.276947 279.0 
113.356384 202.0 
113.542923 120.0 
113.982758 182.0 
114.045761 245.0 
114.20295 194.0 
114.369843 203.0 
114.792313 203.0 
114.90699 190.0 
115.054741 2517.0 
115.206612 158.0 
115.279655 187.0 
115.804466 132.0 
115.986946 167.0 
116.058525 1749.0 
116.646965 242.0 
116.919006 69.0 
116.991669 430.0 
117.058952 6580.0 
117.13414 86.0 
117.153946 80.0 
117.222473 55.0 
117.253448 301.0 
117.30265 255.0 
117.375938 291.0 
117.620148 233.0 
117.64386 327.0 
118.041702 709.0 
118.064835 2879.0 
118.788383 102.0 
119.032028 283.0 
119.052811 609.0 
119.080742 501.0 
119.435005 216.0 
119.798103 199.0 
119.902657 100.0 
120.043709 474.0 
120.079468 461.0 
120.139008 303.0 
120.40934 131.0 
120.438637 52.0 
120.620438 118.0 
121.305862 280.0 
121.352806 204.0 
121.517693 255.0 
121.746933 250.0 
121.791046 211.0 
122.027924 236.0 
122.455017 206.0 
122.907181 181.0 
122.969902 251.0 
123.203934 313.0 
123.617722 202.0 
123.827896 227.0 
124.298309 60.0 
124.374428 134.0 
124.792336 131.0 
124.821655 198.0 
125.665718 321.0 
125.951233 241.0 
126.528915 281.0 
127.103104 377.0 
127.12989 281.0 
127.309822 63.0 
127.559059 256.0 
127.815933 160.0 
127.865402 356.0 
128.05838 1986.0 
128.325989 287.0 
128.441376 223.0 
128.472427 175.0 
128.69548 162.0 
129.050293 195.0 
129.071381 1483.0 
129.278717 186.0 
129.450485 216.0 
129.599899 62.0 
129.642609 129.0 
129.863205 208.0 
129.913315 184.0 
129.967285 298.0 
130.010376 215.0 
130.064865 53586.0 
130.158661 115.0 
130.264481 271.0 
130.512192 187.0 
130.755707 205.0 
130.823059 252.0 
130.918274 243.0 
130.943222 171.0 
130.972809 255.0 
131.048904 85402.0 
131.069885 9437.0 
131.118103 256.0 
131.145538 60.0 
131.217209 39.0 
131.264755 89.0 
131.404083 282.0 
131.558304 31.0 
131.836075 218.0 
131.868607 363.0 
131.947296 302.0 
131.9944 429.0 
132.056595 147122.0 
132.102097 235.0 
132.295715 353.0 
132.340454 159.0 
132.432144 123.0 
132.488449 37.0 
132.676315 142.0 
132.905899 134.0 
132.929108 106.0 
133.025635 332.0 
133.059631 12833.0 
133.085617 517.0 
133.119934 151.0 
133.143158 71.0 
133.204697 132.0 
133.256287 204.0 
133.293411 50.0 
133.373871 88.0 
133.399246 141.0 
133.435516 105.0 
133.771561 85.0 
133.802292 100.0 
133.839798 63.0 
133.884369 246.0 
133.920212 63.0 
133.976089 106.0 
134.059067 6159.0 
134.156769 180.0 
134.200836 78.0 
134.246277 122.0 
134.324844 48.0 
134.621689 146.0 
135.062347 560.0 
135.116638 154.0 
135.140625 253.0 
135.555679 391.0 
136.166977 280.0 
136.270187 203.0 
136.394791 202.0 
136.580811 152.0 
136.955902 63.0 
137.973724 139.0 
138.070084 291.0 
138.243347 73.0 
138.412231 195.0 
138.822449 138.0 
139.037689 165.0 
139.131332 60.0 
139.190735 44.0 
139.302155 35.0 
139.346252 126.0 
139.493195 21.0 
139.588272 241.0 
139.710739 305.0 
139.891663 153.0 
139.956924 58.0 
140.050598 328.0 
140.158142 104.0 
140.229446 178.0 
140.25647 231.0 
140.562164 103.0 
140.605057 41.0 
140.747314 76.0 
140.900879 50.0 
140.927307 237.0 
141.061234 50.0 
141.492966 48.0 
141.630798 63.0 
141.807312 278.0 
141.841522 173.0 
141.933395 485.0 
142.06665 1041.0 
142.210114 87.0 
142.466171 69.0 
142.718536 129.0 
142.922638 234.0 
143.032822 222.0 
143.073029 2209.0 
143.14537 41.0 
143.239975 106.0 
143.411285 321.0 
143.519028 230.0 
143.552963 161.0 
143.807068 105.0 
143.82341 176.0 
143.889526 208.0 
144.052841 4304.0 
144.08078 90836.0 
144.373535 86.0 
144.509872 142.0 
144.903793 64.0 
145.062408 17385.0 
145.086655 20312.0 
145.126892 335.0 
145.191635 83.0 
145.21907 259.0 
145.36792 122.0 
145.468246 108.0 
145.522171 207.0 
145.692505 90.0 
145.921631 162.0 
146.064423 9319.0 
146.095413 4399.0 
146.212128 55.0 
146.259674 170.0 
146.511169 192.0 
146.619705 28.0 
146.710052 64.0 
146.736923 319.0 
147.068024 2974.0 
147.097153 355.0 
147.176849 171.0 
147.513794 144.0 
147.632721 329.0 
147.829269 85.0 
148.042831 93.0 
148.071213 34.0 
148.408035 42.0 
148.462814 318.0 
148.734161 310.0 
148.917145 110.0 
148.944016 269.0 
149.057907 812.0 
149.327026 179.0 
149.514389 168.0 
150.066772 230.0 
150.198746 131.0 
150.300217 422.0 
150.596298 69.0 
150.621506 64.0 
151.060959 116.0 
151.352737 206.0 
151.722992 250.0 
151.836319 186.0 
151.991165 150.0 
152.08786 198.0 
152.238663 259.0 
152.261566 128.0 
152.538818 81.0 
152.75032 274.0 
152.8452 179.0 
153.027405 147.0 
153.062256 93.0 
153.181198 133.0 
153.33313 191.0 
153.351517 263.0 
153.515823 251.0 
153.69017 359.0 
153.850067 49.0 
154.006302 264.0 
154.064545 3013.0 
154.4142 122.0 
154.908356 291.0 
155.069229 1844.0 
155.202072 84.0 
155.282242 124.0 
155.529037 120.0 
155.550034 181.0 
155.674103 231.0 
156.006516 263.0 
156.057388 1007.0 
156.080078 5368.0 
156.386322 96.0 
156.741852 88.0 
157.006897 166.0 
157.040359 170.0 
157.084717 921.0 
157.249741 106.0 
157.348862 339.0 
157.419281 267.0 
157.46962 52.0 
157.794144 148.0 
157.816788 147.0 
157.866913 369.0 
157.931061 320.0 
157.991943 706.0 
158.060364 212602.0 
158.096451 1340.0 
158.135696 385.0 
158.193451 208.0 
158.216599 87.0 
158.233307 58.0 
158.35173 25.0 
158.386047 97.0 
158.456406 89.0 
158.508896 433.0 
158.567093 62.0 
158.609238 18.0 
158.681061 245.0 
158.714371 108.0 
158.769073 91.0 
158.829315 192.0 
158.851028 343.0 
158.885834 75.0 
158.999084 425.0 
159.067276 117187.0 
159.102692 679.0 
159.137314 267.0 
159.168655 100.0 
159.204727 71.0 
159.282883 179.0 
159.357574 99.0 
159.38533 239.0 
159.466461 27.0 
159.599335 18.0 
159.639999 56.0 
159.845856 43.0 
159.89682 105.0 
159.937393 133.0 
160.026489 702.0 
160.074814 39616.0 
160.113037 118.0 
160.224701 139.0 
160.345566 88.0 
160.365875 258.0 
160.42215 139.0 
160.447723 43.0 
160.467072 115.0 
160.713638 88.0 
160.908859 35.0 
161.077667 2717.0 
161.184341 171.0 
161.206711 76.0 
161.234802 115.0 
161.30658 201.0 
161.337021 29.0 
161.36264 252.0 
161.393082 82.0 
161.441299 171.0 
161.910126 132.0 
162.017487 242.0 
162.055893 2489.0 
162.526718 99.0 
162.663376 136.0 
162.872925 229.0 
163.00116 46.0 
163.058426 254.0 
163.198181 230.0 
163.272873 30.0 
163.393341 243.0 
163.516907 51.0 
163.606064 68.0 
163.628021 195.0 
163.801224 121.0 
163.835037 69.0 
164.426849 151.0 
165.004929 51.0 
165.129364 312.0 
165.293396 291.0 
165.417908 114.0 
165.645386 370.0 
166.603958 755.0 
167.07103 332.0 
167.100082 91.0 
167.357666 160.0 
167.792389 190.0 
167.858414 97.0 
167.929398 209.0 
168.084595 460.0 
168.15831 109.0 
168.518112 144.0 
168.745834 401.0 
169.079208 129.0 
169.264999 188.0 
169.549316 270.0 
169.582001 118.0 
169.908615 269.0 
170.063492 449.0 
170.10054 1352.0 
170.150711 219.0 
170.414474 98.0 
170.461624 256.0 
170.86232 122.0 
170.941193 62.0 
170.979324 233.0 
171.068909 248.0 
171.297348 112.0 
171.374207 210.0 
171.535492 99.0 
171.733414 29.0 
171.80072 207.0 
171.826385 146.0 
171.912613 262.0 
171.976746 258.0 
172.07579 90564.0 
172.127838 140.0 
172.155945 46.0 
172.175079 225.0 
172.21022 324.0 
172.258118 169.0 
172.298019 90.0 
172.3358 264.0 
172.364944 67.0 
172.446884 196.0 
172.467499 73.0 
172.510742 346.0 
172.53537 158.0 
172.56749 525.0 
172.608551 376.0 
172.637619 105.0 
172.670013 314.0 
172.742569 170.0 
172.768127 195.0 
172.796173 150.0 
172.833755 755.0 
172.888092 168.0 
172.922104 206.0 
172.948547 442.0 
172.97197 765.0 
172.996216 1146.0 
173.083694 1484371.0 
173.151611 305.0 
173.228806 473.0 
173.256638 1677.0 
173.307114 191.0 
173.332886 626.0 
173.386002 323.0 
173.407928 272.0 
173.458481 1380.0 
173.556107 116.0 
173.583328 235.0 
173.609756 391.0 
173.648529 216.0 
173.716263 272.0 
173.746368 422.0 
173.798965 367.0 
173.830338 356.0 
173.85321 329.0 
173.875412 301.0 
173.931686 35.0 
173.966141 559.0 
173.996719 127.0 
174.087784 215220.0 
174.194199 46.0 
174.220718 492.0 
174.265961 98.0 
174.297653 425.0 
174.386169 20.0 
174.408691 218.0 
174.434601 53.0 
174.458511 93.0 
174.513733 125.0 
174.536972 121.0 
174.566986 98.0 
174.668915 28.0 
174.743927 166.0 
174.826767 62.0 
174.896423 162.0 
174.930939 54.0 
174.948669 129.0 
174.993652 50.0 
175.031052 280.0 
175.055389 524.0 
175.092361 4713.0 
175.156815 284.0 
175.222168 261.0 
175.250198 444.0 
175.284943 143.0 
175.315323 227.0 
175.336838 678.0 
175.379089 540.0 
175.4039 395.0 
175.427048 649.0 
175.448929 263.0 
175.478989 565.0 
175.490677 540.0 
175.521011 696.0 
175.557251 430.0 
175.590363 206.0 
175.607559 275.0 
175.66301 19.0 
175.699402 268.0 
175.929977 138.0 
175.954453 102.0 
176.036407 268.0 
176.071045 6392.0 
176.173096 30.0 
176.204453 32.0 
176.307526 26.0 
176.384995 151.0 
176.423798 140.0 
176.486664 287.0 
176.510056 282.0 
176.53598 322.0 
176.569656 125.0 
176.692322 91.0 
176.732117 21.0 
176.982529 142.0 
177.073029 165.0 
177.09523 81.0 
177.318924 104.0 
177.421432 39.0 
177.751938 40.0 
177.987991 18.0 
178.224915 246.0 
178.380859 106.0 
178.430099 156.0 
178.476151 306.0 
178.502396 45.0 
178.541458 124.0 
178.613632 73.0 
179.051147 116.0 
179.204117 65.0 
179.267838 143.0 
179.372482 84.0 
179.820786 30.0 
179.944244 51.0 
180.123444 66.0 
180.229538 53.0 
180.319717 80.0 
180.354828 269.0 
180.914261 93.0 
180.954086 53.0 
180.981033 27.0 
181.333771 142.0 
181.64386 86.0 
181.728943 41.0 
181.763184 81.0 
181.913361 80.0 
182.099228 523.0 
182.163406 88.0 
182.240494 23.0 
182.350388 66.0 
182.457199 74.0 
182.536224 89.0 
182.711807 96.0 
182.764633 202.0 
182.788254 64.0 
182.860199 27.0 
182.963943 162.0 
183.144104 53.0 
183.22403 86.0 
183.311386 24.0 
183.341263 66.0 
183.758865 275.0 
184.044495 251.0 
184.074463 1200.0 
184.111099 476.0 
184.218689 60.0 
184.323257 18.0 
184.372284 291.0 
184.582092 203.0 
184.667068 180.0 
184.758148 48.0 
184.795013 73.0 
184.888412 59.0 
185.012405 75.0 
185.083954 1591.0 
185.226212 163.0 
185.257446 183.0 
185.35965 307.0 
185.474594 152.0 
185.503296 138.0 
185.575256 129.0 
185.633911 234.0 
185.66185 194.0 
185.713013 222.0 
185.758408 119.0 
185.81041 480.0 
185.869644 94.0 
185.935928 226.0 
185.984268 381.0 
186.019897 508.0 
186.0914 474191.0 
186.158066 62.0 
186.181061 287.0 
186.256165 241.0 
186.27829 186.0 
186.319992 447.0 
186.36792 100.0 
186.417984 61.0 
186.46077 181.0 
186.521545 129.0 
186.587112 26.0 
186.66832 65.0 
186.694412 173.0 
186.731903 166.0 
186.753296 273.0 
186.796341 104.0 
186.823212 289.0 
186.873169 155.0 
186.906921 214.0 
187.096786 93627.0 
187.194016 24.0 
187.227478 94.0 
187.276138 39.0 
187.383926 109.0 
187.506668 89.0 
187.573425 21.0 
187.600021 105.0 
187.646042 59.0 
187.742981 152.0 
187.782623 227.0 
187.894012 179.0 
187.927185 115.0 
187.99025 28.0 
188.054367 152.0 
188.102829 5907.0 
188.152893 220.0 
188.221603 206.0 
188.262436 204.0 
188.343567 105.0 
188.374634 261.0 
188.396606 211.0 
188.438904 238.0 
188.498764 158.0 
188.539398 160.0 
188.563858 85.0 
188.666977 274.0 
188.730713 270.0 
188.828979 69.0 
189.016296 101.0 
189.165878 77.0 
189.280014 105.0 
189.359909 43.0 
189.4086 115.0 
189.459 47.0 
189.490128 288.0 
189.532425 146.0 
189.587479 30.0 
189.606995 85.0 
189.668472 45.0 
189.686371 108.0 
189.933517 70.0 
189.974213 75.0 
190.414917 77.0 
190.772751 308.0 
190.852234 114.0 
191.05867 2916.0 
191.315002 124.0 
191.509094 166.0 
191.57962 89.0 
191.811371 58.0 
192.064209 1240.0 
192.568008 104.0 
193.439087 63.0 
193.628784 76.0 
193.88945 313.0 
193.946106 246.0 
194.388031 49.0 
194.494934 48.0 
194.954697 120.0 
195.180832 82.0 
195.290558 62.0 
195.599091 19.0 
195.864456 109.0 
196.066193 55.0 
196.290268 40.0 
196.649155 42.0 
196.689697 91.0 
196.725769 115.0 
197.19104 58.0 
197.512772 115.0 
198.098373 568.0 
198.128967 596.0 
198.424622 185.0 
199.101151 196.0 
199.123016 153.0 
199.162552 168.0 
199.308304 102.0 
199.39122 54.0 
199.439484 39.0 
199.628418 46.0 
199.851852 144.0 
200.009491 31.0 
200.107025 47345.0 
200.194809 50.0 
200.339981 104.0 
200.510681 91.0 
200.569275 42.0 
200.832245 254.0 
200.889297 106.0 
201.073227 289.0 
201.111237 5600.0 
201.222412 182.0 
201.32135 147.0 
202.261185 121.0 
202.422272 327.0 
202.568054 315.0 
202.629578 97.0 
202.67215 248.0 
202.708618 138.0 
202.962433 59.0 
203.283371 193.0 
203.887314 103.0 
204.330719 46.0 
204.996094 173.0 
205.074234 3124.0 
205.751129 226.0 
206.081589 685.0 
206.458481 231.0 
207.320328 221.0 
207.376404 196.0 
208.00061 224.0 
209.063065 73.0 
209.150909 101.0 
209.315598 342.0 
209.407837 119.0 
210.467819 77.0 
211.463547 191.0 
211.531372 234.0 
211.69516 105.0 
212.057144 253.0 
212.1194 105.0 
212.490005 68.0 
212.84935 224.0 
213.096985 154.0 
213.249573 140.0 
213.817535 73.0 
214.034622 205.0 
214.122986 7751.0 
214.274857 95.0 
214.401688 261.0 
214.609207 84.0 
215.021332 88.0 
215.129608 1616.0 
215.287537 272.0 
215.899643 134.0 
216.014542 123.0 
216.141403 488.0 
216.502869 207.0 
216.794464 245.0 
217.155487 103.0 
217.184464 271.0 
218.692093 313.0 
219.275467 264.0 
219.36879 135.0 
220.035355 255.0 
221.770447 82.0 
221.997162 172.0 
222.076309 127.0 
222.53125 162.0 
223.193085 223.0 
223.720627 183.0 
223.814926 26.0 
224.404526 293.0 
224.838837 323.0 
224.892929 186.0 
226.033585 235.0 
226.604523 104.0 
227.750946 143.0 
227.811157 266.0 
228.077423 201.0 
228.137817 7234.0 
228.461838 137.0 
228.797363 299.0 
229.140549 1449.0 
229.275238 316.0 
231.3078 181.0 
232.135742 428.0 
232.477264 305.0 
232.797134 98.0 
232.975998 269.0 
233.068085 179.0 
233.595642 132.0 
233.718506 18.0 
234.956696 163.0 
235.28801 311.0 
235.315552 437.0 
235.513718 247.0 
237.028244 282.0 
237.399826 323.0 
237.46933 137.0 
237.523026 155.0 
237.784988 237.0 
240.021378 64.0 
240.305069 317.0 
240.384094 97.0 
240.936981 210.0 
241.136627 197.0 
242.087082 155.0 
242.153778 4125.0 
242.361862 147.0 
242.95845 187.0 
243.095749 273.0 
243.159698 764.0 
243.436386 274.0 
244.09169 222.0 
244.171097 92.0 
244.339218 205.0 
244.873795 140.0 
244.925858 244.0 
245.123978 227.0 
245.544754 22.0 
246.799591 188.0 
247.276169 189.0 
247.556946 176.0 
247.866776 268.0 
247.97905 219.0 
248.30365 113.0 
248.419647 116.0 
248.475494 172.0 
248.6642 98.0 
248.870178 170.0 
249.061508 64.0 
249.286957 21.0 
250.429306 352.0 
251.837555 196.0 
253.279205 242.0 
253.413177 123.0 
254.482666 415.0 
255.673798 137.0 
256.018433 288.0 
256.103058 392.0 
256.168396 2022.0 
256.277344 185.0 
256.81369 98.0 
257.164673 88.0 
257.207397 236.0 
257.323364 50.0 
257.507874 185.0 
258.186523 259.0 
258.217224 552.0 
258.456604 37.0 
259.002045 211.0 
259.902649 31.0 
260.694427 114.0 
261.234741 222.0 
261.261688 153.0 
261.615082 180.0 
262.602356 148.0 
263.283539 73.0 
263.752899 223.0 
265.132507 193.0 
265.791138 266.0 
266.433167 307.0 
266.594208 234.0 
266.898682 192.0 
268.287842 272.0 
268.901581 89.0 
270.184814 652.0 
270.244812 251.0 
270.270538 166.0 
272.202393 138.0 
272.828217 515.0 
273.235504 105.0 
275.325287 290.0 
275.722809 196.0 
275.908112 274.0 
275.937378 234.0 
276.344696 205.0 
277.404449 26.0 
278.191528 168.0 
278.950531 302.0 
278.997681 227.0 
280.551056 114.0 
280.725616 286.0 
281.412689 155.0 
281.569519 179.0 
281.672607 81.0 
282.230103 236.0 
282.312531 326.0 
282.401093 123.0 
282.454163 129.0 
282.515778 30.0 
282.612213 277.0 
282.655884 102.0 
282.878387 126.0 
283.173798 101.0 
283.374847 66.0 
283.453888 161.0 
283.504852 80.0 
283.610504 310.0 
283.722717 103.0 
283.775726 158.0 
283.8302 106.0 
283.859253 300.0 
283.911926 107.0 
283.995087 129.0 
284.031982 229.0 
284.107178 160.0 
284.141357 69.0 
284.164246 56.0 
284.206909 223.0 
284.242188 495.0 
284.266296 361.0 
284.338287 143.0 
284.381592 141.0 
284.545929 205.0 
284.583099 188.0 
284.621155 126.0 
284.714783 243.0 
284.735474 318.0 
284.790771 140.0 
284.834473 537.0 
284.907349 193.0 
284.930817 202.0 
284.981201 332.0 
285.024689 295.0 
285.105316 456.0 
285.154388 413.0 
285.221619 731.0 
285.242798 680.0 
285.271271 625.0 
285.320251 319.0 
285.348541 486.0 
285.375214 587.0 
285.458313 404.0 
285.515076 365.0 
285.547699 250.0 
285.576294 466.0 
285.625763 239.0 
285.689117 686.0 
285.724335 243.0 
285.772797 551.0 
285.812958 791.0 
285.864136 644.0 
285.894684 554.0 
285.922882 953.0 
285.990021 1283.0 
286.037689 1645.0 
286.217987 2099175.0 
286.321808 180.0 
286.346008 352.0 
286.382507 148.0 
286.441772 3382.0 
286.508575 1347.0 
286.567108 279.0 
286.589294 459.0 
286.614258 585.0 
286.643982 741.0 
286.699799 3293.0 
286.756409 229.0 
286.778076 139.0 
286.854828 1061.0 
286.888672 792.0 
286.942719 400.0 
287.010559 251.0 
287.044891 325.0 
287.084381 555.0 
287.112488 746.0 
287.221588 267967.0 
287.308136 666.0 
287.369385 48.0 
287.397766 32.0 
287.437042 285.0 
287.478119 440.0 
287.512665 109.0 
287.548615 149.0 
287.577606 45.0 
287.598145 35.0 
287.622467 46.0 
287.643555 58.0 
287.679565 286.0 
287.716034 308.0 
287.742584 160.0 
287.770081 63.0 
287.830261 127.0 
287.870728 89.0 
287.921478 206.0 
287.947296 291.0 
288.036407 212.0 
288.088409 94.0 
288.134064 183.0 
288.168274 84.0 
288.224518 2231.0 
288.469543 289.0 
288.608154 261.0 
288.623596 214.0 
288.652435 41.0 
288.705566 205.0 
288.761505 152.0 
288.79541 117.0 
288.857422 314.0 
288.918243 317.0 
288.973724 302.0 
289.008362 513.0 
289.056274 395.0 
289.10968 548.0 
289.149139 837.0 
289.188171 829.0 
289.262024 433.0 
289.313507 951.0 
289.353973 500.0 
289.382294 269.0 
289.409576 493.0 
289.44693 460.0 
289.478668 328.0 
289.635986 432.0 
289.687897 22.0 
289.721375 26.0 
289.844818 129.0 
289.999847 36.0 
290.064392 130.0 
290.133026 93.0 
290.277649 150.0 
290.301422 89.0 
290.437042 203.0 
290.538177 88.0 
291.222046 46.0 
291.312653 68.0 
291.514648 32.0 
291.685303 90.0 
292.78064 58.0 
295.813293 114.0 
296.746582 42.0 
297.106598 96.0 
297.307526 136.0 
297.505493 44.0 
297.626312 43.0 
297.807739 33.0 
297.861359 144.0 
297.936157 99.0 
298.068054 185.0 
298.148132 61.0 
298.17926 147.0 
298.269745 40.0 
298.320892 50.0 
298.462128 28.0 
298.55423 20.0 
298.653259 74.0 
298.744476 70.0 
298.7771 75.0 
299.00177 49.0 
299.112 31.0 
299.139679 28.0 
299.202209 35.0 
299.832367 127.0 
299.908081 112.0 
301.498993 46.0 
301.808472 97.0 
301.85379 237.0 
302.399658 29.0 
302.430328 54.0 
302.480743 21.0 
302.874542 57.0 
303.145599 73.0 
303.200653 19.0 
303.312408 128.0 
303.556946 88.0 
303.640961 18.0 
303.756561 18.0 
303.822632 18.0 
303.883209 32.0 
304.076172 151.0 
304.220337 81.0 
304.275452 166.0 
304.98172 33.0 
305.128296 80.0 
305.451569 136.0 
306.66452 36.0 
306.80426 116.0 
310.616241 116.0 
311.771301 72.0 
348.967529 58.0 
379.321686 37.0 
384.489258 192.0 
387.83844 99.0 
394.228577 97.0 
412.855652 165.0 
446.5271 111.0 
467.174408 30.0 
480.788879 33.0 
482.35083 138.0 
484.061829 141.0 
553.926941 81.0 
706.648804 106.0 
723.665527 67.0 
804.227417 67.0 
825.392212 27.0 
880.296631 36.0 
885.682129 84.0 
908.392761 28.0 
962.108154 126.0 
974.374329 50.0 
974.440186 95.0 
1022.104919 53.0 
1034.179932 27.0 
1043.37793 55.0 
1097.843872 105.0 
1146.719238 43.0 
1370.462402 71.0 
1464.548584 142.0 
1528.856445 167.0 
1531.226562 322.0 
1537.165161 36.0 
1543.092651 177.0 
1555.919067 71.0 
1563.268066 56.0 
1596.706543 239.0 
1610.206055 196.0 
1612.345459 283.0 
1617.436279 250.0 
1617.700806 185.0 
1647.378906 252.0 
1696.784302 277.0 
1700.944702 166.0 
1706.82666 399.0 
1708.51709 64.0 
1718.295166 248.0 
1719.892578 101.0 
1725.140503 195.0 
1727.109619 159.0 
1751.11731 176.0 
1762.525513 214.0 
1765.579224 260.0 
1767.94751 222.0 
1810.661621 308.0 
1813.470459 211.0 
1832.195923 186.0 
1842.834961 243.0 
1851.402466 192.0 
1864.061646 300.0 
1882.384644 157.0 
1887.400146 321.0 
1897.402222 71.0 
1898.883179 215.0 
1902.499756 261.0 
1903.806274 219.0 
1907.522461 165.0 
1909.332764 282.0 
1914.754761 230.0 
1919.430908 130.0 
1934.106445 214.0 
1942.881104 206.0 
1943.489868 234.0 
1946.575317 86.0 
1951.324585 233.0 
1968.268311 193.0 
1970.918091 343.0 
1972.1073 364.0 
1974.342041 218.0 
1975.769653 308.0 
1985.575073 55.0 
1988.598633 199.0 
1994.944824 140.0 
1996.157837 123.0 
END IONS

BEGIN IONS
TITLE=Scan Number: 85
PEPMASS=559.12299
CHARGE=1+
MSLEVEL=2
FILENAME=A9_RA9_01_2740.mzXML
INSTRUMENT=ion trap
SCANS=85
SMILES=OC1CC2=C(O)C=C3OC(O)(C4=CC=C(O)C=C4)C5(OC6=C(C5=O)C(O)=CC(O)=C6)C3=C2OC1C7=CC=C(O)C=C7
INCHIKEY=PAUVEHXCLNBAPG-UHFFFAOYSA-N
85.061768 168.0 
94.140892 326.0 
95.476692 366.0 
99.102036 186.0 
106.046089 157.0 
107.04895 2764.0 
111.00441 160.0 
111.045235 156.0 
114.490814 308.0 
116.035278 189.0 
117.047668 127.0 
119.049072 122.0 
120.796867 99.0 
120.908539 99.0 
121.028244 40260.0 
121.181656 196.0 
121.61026 102.0 
122.034958 2049.0 
123.007996 177.0 
123.038055 497.0 
125.021423 418.0 
127.039093 1859.0 
127.089249 201.0 
128.044769 611.0 
129.042221 159.0 
136.974365 145.0 
137.08815 157.0 
147.115402 167.0 
149.022186 1792.0 
149.051437 206.0 
149.138123 287.0 
150.026062 148.0 
153.014954 648.0 
157.090012 140.0 
159.101212 135.0 
161.099854 140.0 
163.03801 154.0 
165.019989 120.0 
165.055176 212.0 
173.059601 185.0 
176.037186 189.0 
177.017059 10242.0 
178.024231 402.0 
178.247864 101.0 
179.032806 601.0 
180.542999 137.0 
181.120834 121.0 
183.589432 83.0 
185.055862 97.0 
185.095062 284.0 
187.039566 150.0 
189.01857 2988.0 
190.019241 167.0 
191.032944 351.0 
192.025513 199.0 
196.034775 175.0 
200.04187 148.0 
202.997238 175.0 
203.039459 112.0 
205.011429 547.0 
207.022751 111.0 
208.070251 172.0 
211.069321 124.0 
213.061661 238.0 
215.033661 369.0 
218.056396 252.0 
227.043472 186.0 
231.03772 194.0 
231.074326 110.0 
233.042892 1424.0 
234.988266 193.0 
244.02858 188.0 
255.059586 126.0 
255.176849 190.0 
256.070831 146.0 
257.043549 802.0 
257.083801 371.0 
258.035156 114.0 
258.059479 148.0 
259.010345 126.0 
261.006714 259.0 
261.038208 451.0 
262.034912 139.0 
267.078278 768.0 
269.043396 603.0 
270.049591 364.0 
271.060455 211.0 
274.034851 219.0 
275.057159 256.0 
281.041595 91.0 
283.062439 1095.0 
284.043091 131.0 
285.042694 1653.0 
287.055054 1535.0 
288.061859 118.0 
293.042877 200.0 
295.063965 1072.0 
296.063843 400.0 
297.035858 1595.0 
298.045227 378.0 
299.051788 134.0 
299.140839 201.0 
301.030975 440.0 
302.892609 280.0 
303.050262 22199.0 
303.187805 370.0 
303.23819 313.0 
303.326874 106.0 
304.003632 201.0 
304.052643 1950.0 
304.184448 88.0 
305.052582 380.0 
306.088043 86.0 
308.961334 140.0 
309.077606 137.0 
309.23056 168.0 
313.0755 100.0 
315.047729 4510.0 
316.054565 696.0 
321.03598 134.0 
323.047424 108.0 
331.058868 116.0 
336.20285 82.0 
347.061615 246.0 
354.214142 126.0 
360.067749 116.0 
365.062408 191.0 
375.0802 143.0 
389.099823 143.0 
393.09848 148.0 
393.805847 204.0 
394.105988 149.0 
395.054718 128.0 
403.152008 116.0 
404.082062 153.0 
405.057098 809.0 
406.069733 172.0 
407.08548 102.0 
416.975952 86.0 
417.057892 590.0 
418.071106 246.0 
420.262665 101.0 
421.043274 245.0 
421.091156 2573.0 
422.662689 237.0 
423.070282 3026.0 
426.048828 224.0 
432.223755 265.0 
435.069092 2121.0 
435.307922 248.0 
435.376434 116.0 
436.086121 209.0 
437.263702 293.0 
439.099121 144.0 
440.104095 163.0 
453.095337 132.0 
455.270386 159.0 
461.248108 109.0 
506.299164 301.0 
513.134949 735.0 
523.109924 361.0 
524.107056 201.0 
524.296753 125.0 
532.32605 197.0 
541.11499 1168.0 
542.123779 292.0 
542.290405 210.0 
559.262268 265.0 
560.252808 102.0 
560.309509 212.0 
669.192139 146.0 
1540.36145 203.0 
1795.227661 246.0 
1901.700806 221.0 
END IONS

BEGIN IONS
TITLE=Scan Number: 87
PEPMASS=576.15002
CHARGE=1+
MSLEVEL=2
FILENAME=A9_RA9_01_2740.mzXML
INSTRUMENT=ion trap
SCANS=87
SMILES=OC1CC2=C(O)C=C3OC(O)(C4=CC=C(O)C=C4)C5(OC6=C(C5=O)C(O)=CC(O)=C6)C3=C2OC1C7=CC=C(O)C=C7
INCHIKEY=PAUVEHXCLNBAPG-UHFFFAOYSA-N
79.052338 244.0 
81.031433 172.0 
82.132309 316.0 
82.335312 331.0 
93.033356 185.0 
96.088951 199.0 
98.062225 260.0 
107.049118 2066.0 
109.026115 186.0 
111.008827 331.0 
111.046715 467.0 
119.048721 124.0 
121.02787 14998.0 
121.184517 251.0 
121.272186 174.0 
122.032082 1629.0 
123.008194 97.0 
127.038567 1017.0 
135.078384 130.0 
140.042953 152.0 
140.071487 91.0 
144.041214 160.0 
149.01593 267.0 
149.059143 248.0 
150.829971 155.0 
153.020172 574.0 
153.055634 179.0 
161.024017 192.0 
163.03653 139.0 
165.015533 837.0 
165.399948 295.0 
166.022415 103.0 
167.01561 178.0 
177.01973 2395.0 
178.024155 214.0 
179.032898 249.0 
179.757141 260.0 
180.035751 125.0 
188.990723 98.0 
189.017685 867.0 
191.038803 205.0 
202.015869 168.0 
203.029587 172.0 
209.059677 131.0 
209.159088 182.0 
209.236588 175.0 
216.038422 150.0 
224.038925 100.0 
225.055588 187.0 
227.064453 184.0 
233.049957 153.0 
237.047379 205.0 
242.065399 122.0 
243.027924 149.0 
243.063034 236.0 
251.051682 152.0 
255.061386 378.0 
257.044647 355.0 
258.041809 155.0 
259.062012 390.0 
261.027222 156.0 
262.046906 122.0 
266.785614 222.0 
268.11908 105.0 
269.043457 100.0 
273.044403 134.0 
275.052917 89.0 
281.047607 254.0 
285.066681 215.0 
286.037994 257.0 
287.053986 245.0 
288.061188 117.0 
289.098114 232.0 
289.166718 222.0 
290.213745 143.0 
295.058411 872.0 
297.041351 360.0 
299.050354 383.0 
301.048248 142.0 
303.053101 10047.0 
304.06485 375.0 
304.161041 264.0 
305.059723 305.0 
307.060394 455.0 
311.035095 285.0 
315.053162 3067.0 
315.187103 219.0 
316.059387 391.0 
321.042938 194.0 
331.091217 192.0 
334.077911 534.0 
335.070068 182.0 
337.05011 147.0 
349.079132 196.0 
362.041199 208.0 
362.95752 148.0 
363.008087 90.0 
363.051636 978.0 
364.056061 557.0 
365.364807 90.0 
366.582123 85.0 
377.074707 1008.0 
377.161804 131.0 
379.059814 99.0 
387.081635 305.0 
389.064606 166.0 
396.08725 113.0 
404.044678 89.0 
404.992645 313.0 
405.062592 4548.0 
406.072693 764.0 
407.072479 841.0 
408.093018 134.0 
421.093445 906.0 
422.096466 432.0 
423.074127 4321.0 
424.079346 582.0 
433.218842 123.0 
434.284912 120.0 
434.980927 152.0 
435.071167 2425.0 
436.07785 710.0 
439.091705 173.0 
467.104492 110.0 
496.114105 106.0 
513.123291 814.0 
514.098633 168.0 
514.128174 267.0 
521.25769 165.0 
523.108826 1153.0 
524.100586 299.0 
540.261292 144.0 
541.061035 355.0 
541.113953 4416.0 
542.122498 972.0 
543.105042 160.0 
543.336731 164.0 
559.131897 347.0 
576.345703 134.0 
854.784119 687.0 
1668.488525 240.0 
END IONS

BEGIN IONS
TITLE=Scan Number: 88
PEPMASS=639.35797
CHARGE=1+
MSLEVEL=2
FILENAME=A9_RA9_01_2740.mzXML
INSTRUMENT=ion trap
SCANS=88
SMILES=CCC(C)C(O)C(=O)OC(C(C)CC)C(=O)OC(C(C)CC)C(=O)OC(C(C)CC)C(=O)OCC(O)C(O)C(O)C(O)CO
INCHIKEY=XHFZCGJKWBSHAG-UHFFFAOYSA-N
70.073433 2064.0 
70.104271 73.0 
70.358658 101.0 
70.653786 127.0 
70.971146 246.0 
71.009354 255.0 
71.047104 349.0 
71.870193 177.0 
72.268829 417.0 
73.064919 691.0 
73.565567 242.0 
73.824608 241.0 
73.980553 261.0 
74.066292 179.0 
74.542839 166.0 
75.449089 263.0 
76.17382 243.0 
78.243881 312.0 
78.495155 146.0 
79.268112 274.0 
81.033371 2204.0 
82.111862 518.0 
82.226646 118.0 
82.284325 221.0 
82.343422 205.0 
82.831543 539.0 
83.049019 5957.0 
83.08625 295.0 
84.050896 327.0 
85.027435 6649.0 
85.581863 83.0 
86.030167 314.0 
86.06144 74.0 
86.663467 234.0 
86.819511 178.0 
87.022446 136.0 
87.046066 1883.0 
87.079979 170088.0 
87.119522 73.0 
87.137672 60.0 
87.209251 251.0 
87.273148 124.0 
87.678345 97.0 
87.711212 60.0 
87.907242 186.0 
88.019485 117.0 
88.046974 323.0 
88.083931 8746.0 
88.304138 75.0 
88.319862 122.0 
88.476265 53.0 
88.529968 125.0 
88.71904 88.0 
88.747299 95.0 
88.763374 72.0 
88.791512 62.0 
88.86084 86.0 
88.979599 56.0 
89.08651 403.0 
89.404579 122.0 
89.437798 52.0 
89.542175 162.0 
89.561089 277.0 
90.239899 72.0 
90.509895 76.0 
91.039383 787.0 
91.374359 77.0 
91.684341 300.0 
93.373558 96.0 
93.599129 52.0 
95.048195 424.0 
95.33844 175.0 
95.649994 281.0 
95.731712 99.0 
97.032585 233.0 
97.064529 11754.0 
98.068062 552.0 
98.16114 162.0 
99.04435 5953.0 
99.676659 221.0 
100.047188 591.0 
100.493729 71.0 
101.059853 520.0 
103.039528 1737.0 
103.559814 195.0 
104.042732 87.0 
105.043633 217.0 
105.091179 7481.0 
105.718071 304.0 
106.095924 422.0 
107.051857 195.0 
107.849434 127.0 
110.097977 174.0 
111.044456 18512.0 
111.08284 166.0 
112.045761 1349.0 
112.811485 64.0 
113.082344 181.0 
113.967644 179.0 
114.344872 65.0 
115.040863 217.0 
115.076271 4288.0 
115.293709 82.0 
115.472633 80.0 
116.079773 582.0 
117.054321 1669.0 
117.667099 358.0 
118.584846 86.0 
120.122261 78.0 
120.212303 294.0 
121.172058 69.0 
127.20903 313.0 
128.112656 414.0 
128.168274 98.0 
128.302261 246.0 
129.023895 406.0 
129.054886 45745.0 
129.095657 368.0 
130.055847 2175.0 
130.095474 156.0 
130.64537 116.0 
131.05835 133.0 
131.087402 265.0 
131.131119 176.0 
131.283051 204.0 
132.106003 330.0 
133.085724 12872.0 
133.254791 261.0 
134.087479 453.0 
134.159256 185.0 
134.415344 104.0 
135.157166 275.0 
135.579544 254.0 
136.394943 55.0 
138.590668 181.0 
139.019104 192.0 
140.543106 283.0 
142.15451 174.0 
142.596588 130.0 
144.468185 283.0 
147.065643 37089.0 
147.102493 1235.0 
148.0672 1268.0 
148.102478 187.0 
149.303009 102.0 
150.170959 287.0 
151.09259 1134.0 
151.985596 69.0 
152.102997 710.0 
152.172806 173.0 
152.752731 61.0 
153.08696 213.0 
155.145187 288.0 
156.04747 154.0 
156.113754 93.0 
158.223022 161.0 
159.098618 371.0 
160.503387 99.0 
163.003128 84.0 
164.888412 193.0 
165.003387 191.0 
165.076553 51046.0 
165.252289 56.0 
165.723221 86.0 
166.078537 2943.0 
167.081879 153.0 
167.286758 200.0 
167.360107 126.0 
167.403519 106.0 
168.251617 157.0 
168.401932 125.0 
169.557785 345.0 
172.217529 104.0 
172.361298 88.0 
172.788696 57.0 
172.900528 163.0 
173.044617 212.0 
173.079056 482.0 
173.154358 160161.0 
173.203354 197.0 
173.279022 58.0 
173.390244 102.0 
173.450211 172.0 
173.502396 90.0 
173.537918 188.0 
173.663406 130.0 
173.742401 88.0 
173.888275 154.0 
173.950607 110.0 
174.157761 11758.0 
174.41037 84.0 
174.59845 160.0 
174.824707 53.0 
175.057175 145.0 
175.096756 4892.0 
175.162323 476.0 
175.216446 302.0 
175.319321 103.0 
175.379501 95.0 
175.458084 168.0 
175.501236 126.0 
175.544189 99.0 
177.790207 121.0 
178.27272 85.0 
181.34552 186.0 
181.916733 193.0 
182.197495 133.0 
182.644409 108.0 
182.912842 96.0 
183.086899 3448.0 
183.137451 1184.0 
185.118912 165.0 
186.911407 98.0 
187.187805 86.0 
187.642197 73.0 
187.880096 76.0 
187.988907 141.0 
188.777481 135.0 
189.61235 280.0 
193.012268 191.0 
193.736694 238.0 
193.799042 95.0 
195.806366 241.0 
197.115265 252.0 
197.352127 201.0 
200.556976 60.0 
201.148392 3478.0 
201.345612 53.0 
202.150269 313.0 
205.107605 1521.0 
207.105499 682.0 
210.458679 172.0 
211.133545 3344.0 
211.377274 225.0 
211.607956 192.0 
212.139389 854.0 
213.110336 108.0 
215.127701 1563.0 
216.13681 278.0 
216.713867 276.0 
218.782425 158.0 
219.107605 243.0 
219.122559 240.0 
219.159607 13351.0 
220.104294 110.0 
220.164856 1162.0 
220.919769 106.0 
225.112061 1660.0 
226.11319 138.0 
227.738693 139.0 
228.139679 117.0 
228.403824 60.0 
228.456497 93.0 
228.488205 228.0 
228.674789 263.0 
228.806442 212.0 
228.992126 367.0 
229.058746 216.0 
229.14447 141114.0 
229.192337 263.0 
229.220703 156.0 
229.300644 60.0 
229.340225 92.0 
229.512405 182.0 
229.629105 113.0 
229.772339 189.0 
229.871902 67.0 
230.063278 242.0 
230.093765 134.0 
230.149048 13882.0 
230.400452 80.0 
230.467941 102.0 
230.625 157.0 
230.682999 96.0 
230.799957 158.0 
231.031052 71.0 
231.070206 116.0 
231.14888 1338.0 
231.508514 93.0 
231.592987 86.0 
231.677246 375.0 
231.757278 164.0 
233.004623 106.0 
233.140915 2311.0 
233.868729 137.0 
234.14447 167.0 
241.111862 225.0 
243.124634 9266.0 
243.198929 135.0 
244.125504 797.0 
245.178238 62.0 
245.22731 169.0 
247.034286 114.0 
247.155716 11606.0 
247.550812 81.0 
248.163757 1245.0 
250.189926 248.0 
251.152802 195.0 
251.634033 222.0 
253.47168 67.0 
257.65683 168.0 
258.196167 105.0 
258.792084 71.0 
259.991913 69.0 
261.073883 144.0 
261.13504 29731.0 
261.215149 179.0 
261.38205 65.0 
262.139282 2792.0 
263.15274 298.0 
263.620239 84.0 
263.903046 117.0 
269.729584 213.0 
273.170959 159.0 
276.451324 105.0 
276.950958 140.0 
277.044708 85.0 
278.370026 242.0 
279.090881 140.0 
279.145996 33435.0 
279.493347 85.0 
279.537689 153.0 
279.595886 65.0 
279.654938 114.0 
280.152283 2992.0 
280.921509 70.0 
281.153625 375.0 
282.202667 83.0 
284.244568 160.0 
289.16803 1769.0 
290.171539 229.0 
291.66803 96.0 
297.152069 174.0 
297.30896 102.0 
301.166809 97.0 
309.205078 162.0 
310.740265 72.0 
311.184021 174.0 
319.175568 461.0 
319.390015 189.0 
325.205811 591.0 
326.213257 95.0 
329.161224 73.0 
329.198181 150.0 
333.180115 90.0 
339.111786 178.0 
339.197205 355.0 
340.563568 71.0 
341.830048 97.0 
341.933624 109.0 
341.974213 89.0 
342.019043 98.0 
342.779327 120.0 
343.0849 69.0 
343.154236 827.0 
343.213959 55745.0 
343.679779 116.0 
343.857025 97.0 
343.939789 139.0 
344.044678 161.0 
344.217621 6127.0 
345.081604 69.0 
345.511841 181.0 
345.786255 78.0 
346.02771 62.0 
346.735931 117.0 
346.772583 62.0 
346.861847 158.0 
348.211273 89.0 
354.240326 204.0 
357.192444 3496.0 
358.204041 136.0 
361.227966 605.0 
368.508453 152.0 
373.630646 130.0 
374.775726 177.0 
375.105438 253.0 
375.14743 342.0 
375.203522 35141.0 
375.269165 144.0 
376.079773 60.0 
376.208649 5051.0 
377.214264 160.0 
378.074646 55.0 
378.513092 190.0 
378.867035 103.0 
386.915802 85.0 
389.723877 131.0 
390.732544 151.0 
392.23349 462.0 
392.377045 67.0 
393.103027 137.0 
393.214294 25308.0 
393.609589 63.0 
393.67514 65.0 
394.220551 2658.0 
394.348572 184.0 
394.452728 62.0 
394.495728 66.0 
395.221069 446.0 
398.132294 139.0 
399.24588 55.0 
411.221039 3798.0 
412.17923 95.0 
412.236237 383.0 
413.375885 75.0 
413.426727 67.0 
424.82077 87.0 
429.279419 89.0 
432.572449 193.0 
453.249969 518.0 
457.282196 1295.0 
458.286072 485.0 
459.118652 57.0 
471.260834 2577.0 
472.250366 114.0 
472.315186 277.0 
476.315216 168.0 
480.357758 82.0 
484.016052 162.0 
485.114746 157.0 
486.420013 69.0 
487.591217 148.0 
488.061157 128.0 
488.574249 56.0 
489.087891 147.0 
489.165497 394.0 
489.271973 43988.0 
489.558777 129.0 
489.703644 81.0 
490.05188 154.0 
490.189056 235.0 
490.275421 9445.0 
490.490112 63.0 
490.761444 84.0 
491.285889 219.0 
491.652405 116.0 
492.068726 81.0 
492.337189 71.0 
493.460602 53.0 
503.182678 78.0 
506.490662 68.0 
507.219147 198.0 
507.281982 7175.0 
507.744995 140.0 
508.283386 1248.0 
511.390228 112.0 
525.29071 280.0 
526.295349 111.0 
529.164673 110.0 
529.297302 135.0 
556.614319 174.0 
559.295471 166.0 
580.924622 126.0 
585.330994 314.0 
586.31665 352.0 
595.075439 69.0 
598.171265 137.0 
599.834473 110.0 
601.461182 108.0 
602.586304 165.0 
602.687866 133.0 
603.063354 67.0 
603.233459 241.0 
603.34259 19808.0 
604.23938 193.0 
604.346375 3315.0 
604.487305 187.0 
605.216919 53.0 
605.363525 524.0 
605.531189 82.0 
605.969849 88.0 
606.041016 132.0 
607.352966 115.0 
607.894592 150.0 
608.045898 88.0 
610.205688 111.0 
621.353027 235.0 
622.394592 102.0 
639.470032 247.0 
718.160156 52.0 
1062.460693 160.0 
1301.731323 127.0 
1335.04248 197.0 
1384.692505 271.0 
1467.110596 164.0 
1468.940186 197.0 
1573.624023 197.0 
1618.02832 251.0 
1665.705811 88.0 
1743.928345 144.0 
1764.476318 254.0 
1765.143311 283.0 
1765.364014 183.0 
1779.515747 219.0 
1820.695557 149.0 
1834.208984 221.0 
1835.827759 159.0 
1840.897705 94.0 
1862.783569 144.0 
1901.189331 227.0 
1923.580933 253.0 
1932.35376 165.0 
END IONS

BEGIN IONS
TITLE=Scan Number: 89
PEPMASS=656.38501
CHARGE=1+
MSLEVEL=2
FILENAME=A9_RA9_01_2740.mzXML
INSTRUMENT=ion trap
SCANS=89
SMILES=CCC(C)C(O)C(=O)OC(C(C)CC)C(=O)OC(C(C)CC)C(=O)OC(C(C)CC)C(=O)OCC(O)C(O)C(O)C(O)CO
INCHIKEY=XHFZCGJKWBSHAG-UHFFFAOYSA-N
71.050064 330.0 
81.033401 160.0 
83.048416 1547.0 
85.026978 425.0 
86.999069 143.0 
87.080078 21786.0 
87.116806 338.0 
87.158646 165.0 
87.174446 306.0 
87.324364 176.0 
87.374115 98.0 
88.056625 152.0 
88.083572 1347.0 
88.614021 137.0 
90.068214 81.0 
90.648026 160.0 
91.035347 534.0 
96.650475 152.0 
97.06675 1182.0 
98.067978 294.0 
98.981514 240.0 
99.042961 1367.0 
100.046318 130.0 
101.062515 177.0 
103.037605 119.0 
105.091492 2211.0 
111.014122 155.0 
111.043991 4014.0 
111.082924 284.0 
112.051781 456.0 
115.074226 197.0 
117.052841 623.0 
124.991081 232.0 
129.055954 3964.0 
129.724854 229.0 
130.06308 525.0 
130.430435 230.0 
132.371811 102.0 
132.992722 210.0 
133.086487 9415.0 
134.059464 120.0 
134.087921 308.0 
135.08754 117.0 
141.4785 93.0 
147.066132 1751.0 
148.079422 257.0 
149.069748 125.0 
151.095856 916.0 
153.452103 229.0 
165.04335 308.0 
165.076874 7682.0 
166.077866 329.0 
167.084167 189.0 
172.353073 196.0 
173.15361 21027.0 
173.626663 86.0 
174.157272 1792.0 
174.188858 113.0 
175.338669 81.0 
175.572433 86.0 
177.061356 243.0 
179.022034 221.0 
183.088806 538.0 
183.136246 309.0 
186.093307 228.0 
191.024841 262.0 
195.012726 175.0 
199.071884 132.0 
201.150177 762.0 
202.087814 308.0 
202.150085 303.0 
203.043777 125.0 
206.154282 132.0 
207.04538 160.0 
207.486572 176.0 
211.136383 165.0 
215.105759 74.0 
217.070663 104.0 
219.159256 6257.0 
219.419556 124.0 
219.445297 127.0 
220.164734 295.0 
221.034225 183.0 
225.060196 233.0 
227.057419 85.0 
229.14473 25225.0 
230.147903 1127.0 
231.151093 432.0 
234.092972 210.0 
238.251984 174.0 
239.015747 174.0 
239.043747 1107.0 
243.123703 1226.0 
247.102097 260.0 
247.155273 11442.0 
248.161331 588.0 
249.065506 189.0 
250.069336 165.0 
261.132263 2177.0 
262.131714 214.0 
263.084351 287.0 
273.107788 194.0 
279.14624 3720.0 
280.149811 500.0 
280.517548 225.0 
288.790253 152.0 
301.168152 113.0 
307.1138 625.0 
315.217438 149.0 
325.203644 219.0 
326.209167 160.0 
335.08728 222.0 
336.101898 114.0 
339.152802 652.0 
339.667755 210.0 
343.025177 460.0 
343.161407 268.0 
343.21402 16059.0 
344.214691 2213.0 
348.166504 810.0 
349.173798 257.0 
351.822144 173.0 
353.127075 512.0 
354.100464 176.0 
357.191925 397.0 
358.194397 138.0 
361.1633 124.0 
361.226471 2100.0 
362.223053 956.0 
375.131439 121.0 
375.203308 6079.0 
376.212921 605.0 
377.212799 226.0 
385.646881 178.0 
393.030945 215.0 
393.125793 205.0 
393.213409 7584.0 
393.563843 117.0 
394.217651 1516.0 
396.233154 99.0 
400.269836 107.0 
411.225311 313.0 
450.170166 150.0 
453.187164 174.0 
457.282593 1050.0 
458.186432 189.0 
458.295135 124.0 
467.193176 213.0 
471.258362 221.0 
472.280914 122.0 
489.270691 7924.0 
490.278534 1734.0 
491.32254 122.0 
491.413147 98.0 
491.545135 100.0 
505.559387 139.0 
507.284393 6293.0 
508.225555 180.0 
508.286835 1100.0 
509.243286 95.0 
525.293518 753.0 
526.295959 216.0 
527.296021 108.0 
529.374451 135.0 
563.248291 118.0 
576.294617 568.0 
585.327454 131.0 
593.785095 166.0 
599.802979 93.0 
603.344177 4345.0 
604.349304 1525.0 
621.347839 2985.0 
622.357788 557.0 
623.365479 103.0 
639.389099 108.0 
641.379089 110.0 
649.309753 192.0 
656.379517 114.0 
656.438904 116.0 
656.486572 117.0 
657.372986 228.0 
658.29895 178.0 
658.346252 1646.0 
661.36084 283.0 
677.317627 128.0 
909.33197 190.0 
1379.052246 244.0 
1894.473511 133.0 
1967.119507 220.0 
END IONS

BEGIN IONS
TITLE=Scan Number: 90
PEPMASS=661.34003
CHARGE=1+
MSLEVEL=2
FILENAME=A9_RA9_01_2740.mzXML
INSTRUMENT=ion trap
SCANS=90
SMILES=CCC(C)C(O)C(=O)OC(C(C)CC)C(=O)OC(C(C)CC)C(=O)OC(C(C)CC)C(=O)OCC(O)C(O)C(O)C(O)CO
INCHIKEY=XHFZCGJKWBSHAG-UHFFFAOYSA-N
75.042717 445.0 
75.291893 181.0 
77.037117 180.0 
77.079819 117.0 
78.215416 112.0 
79.05378 1270.0 
81.033646 708.0 
81.070816 1327.0 
82.074318 186.0 
85.027763 229.0 
87.045219 164.0 
91.054886 1974.0 
93.069931 18886.0 
94.073647 532.0 
94.329811 93.0 
95.04863 502.0 
95.08654 477.0 
97.007484 211.0 
97.028038 2350.0 
97.065323 486.0 
99.045486 168.0 
105.04509 502.0 
105.0709 2580.0 
106.0728 175.0 
106.197899 89.0 
107.085152 5144.0 
108.09063 200.0 
109.027336 1291.0 
109.065331 322.0 
109.101135 861.0 
111.043556 805.0 
111.08136 1632.0 
114.063454 95.0 
115.056389 556.0 
117.068794 156.0 
119.083992 5848.0 
120.082764 222.0 
120.802055 297.0 
120.972649 130.0 
121.063248 1035.0 
121.1007 32764.0 
122.103951 2531.0 
123.04496 252.0 
123.080719 1004.0 
123.116577 341.0 
123.948631 83.0 
125.010651 136.0 
125.061234 129.0 
127.037674 1014.0 
128.062149 168.0 
129.057785 440.0 
130.076508 197.0 
131.086044 4287.0 
131.873383 154.0 
132.091034 594.0 
132.279556 134.0 
133.074951 703.0 
133.101639 588.0 
134.069 352.0 
134.106125 376.0 
135.04245 241.0 
135.078842 720.0 
135.115295 393.0 
136.088882 579.0 
136.116821 120.0 
137.099533 167.0 
138.058044 124.0 
139.078369 103.0 
139.109741 522.0 
141.051651 101.0 
141.095978 137.0 
142.076889 240.0 
143.087524 922.0 
144.158646 250.0 
144.712555 186.0 
145.061783 255.0 
145.102203 756.0 
146.102173 463.0 
147.06398 164.0 
147.083313 380.0 
147.117142 725.0 
148.281494 116.0 
149.09584 13866.0 
149.133682 162.0 
150.017944 205.0 
150.100372 2264.0 
155.072708 125.0 
155.345551 90.0 
156.090057 198.0 
157.073059 263.0 
157.098526 599.0 
158.070389 116.0 
158.103333 157.0 
159.066147 225.0 
159.116913 2175.0 
159.419952 142.0 
160.121231 236.0 
161.095062 1210.0 
163.115189 177.0 
165.093369 141.0 
167.069962 551.0 
167.108505 2025.0 
168.086792 171.0 
168.112396 249.0 
169.08757 116.0 
170.622452 241.0 
171.084854 160.0 
171.116211 533.0 
172.121811 458.0 
173.097916 192.0 
173.131607 1391.0 
174.148117 275.0 
175.074097 165.0 
175.108231 593.0 
177.090378 391.0 
181.118744 127.0 
183.118011 442.0 
184.119095 306.0 
185.097839 416.0 
185.138657 695.0 
185.536682 359.0 
186.133621 263.0 
187.103317 379.0 
187.146713 1434.0 
188.15448 435.0 
189.089478 187.0 
191.077362 129.0 
191.101669 158.0 
191.182388 154.0 
193.098373 134.0 
194.104279 371.0 
195.117371 443.0 
197.096008 178.0 
197.135437 264.0 
198.136032 83.0 
199.079269 197.0 
199.112137 313.0 
201.128448 290.0 
203.101913 79.0 
205.121414 157.0 
206.122513 162.0 
207.11293 243.0 
207.143524 229.0 
209.135178 181.0 
211.114151 519.0 
212.157822 207.0 
213.07518 384.0 
213.132568 161.0 
213.16568 332.0 
214.170898 389.0 
215.107758 113.0 
215.146515 219.0 
216.146927 248.0 
219.108307 167.0 
221.125244 96.0 
222.10762 172.0 
223.075668 145.0 
223.11412 321.0 
223.150375 226.0 
225.165192 131.0 
227.114563 211.0 
227.142288 283.0 
229.123352 393.0 
230.124725 177.0 
231.121994 343.0 
233.092941 144.0 
233.124329 215.0 
233.156982 433.0 
235.078766 148.0 
235.155685 172.0 
239.149078 546.0 
240.174515 224.0 
240.459457 122.0 
240.991653 105.0 
241.158325 304.0 
241.196716 502.0 
242.170227 184.0 
245.121323 274.0 
245.15831 204.0 
246.124207 189.0 
248.141144 167.0 
249.107651 137.0 
249.171616 96.0 
251.105911 122.0 
251.12886 295.0 
251.178436 413.0 
252.119568 209.0 
252.175446 391.0 
253.120743 371.0 
253.20079 214.0 
253.96283 200.0 
254.175308 144.0 
255.653809 110.0 
257.115906 324.0 
258.121613 201.0 
259.171661 311.0 
262.134094 138.0 
263.129639 261.0 
265.145294 131.0 
266.124237 187.0 
268.187805 364.0 
269.150787 216.0 
269.194 1549.0 
270.155334 134.0 
270.197357 572.0 
273.163879 112.0 
275.128448 1789.0 
276.128876 285.0 
279.172791 249.0 
281.13681 148.0 
282.189758 248.0 
286.18811 292.0 
287.2005 2068.0 
288.198669 811.0 
293.092773 333.0 
293.14093 6237.0 
293.187225 95.0 
294.141754 121.0 
295.171722 311.0 
297.186707 1019.0 
311.152161 705.0 
315.198212 2231.0 
321.183167 159.0 
329.154999 165.0 
333.169067 341.0 
333.208374 267.0 
335.196228 195.0 
339.17923 92.0 
345.17627 170.0 
349.152893 165.0 
349.23114 103.0 
357.176544 209.0 
359.239166 163.0 
367.210358 213.0 
387.205475 150.0 
395.227692 154.0 
401.245728 87.0 
403.203369 84.0 
407.286194 244.0 
413.227905 186.0 
415.260254 193.0 
423.214905 165.0 
424.208435 155.0 
431.203186 156.0 
431.25116 413.0 
432.246216 207.0 
441.230408 646.0 
442.226593 282.0 
458.068756 173.0 
458.874023 81.0 
459.065552 247.0 
459.158173 162.0 
459.192535 747.0 
459.241119 13017.0 
460.241089 1598.0 
460.771606 109.0 
461.105072 87.0 
461.25769 302.0 
462.796875 111.0 
464.301544 175.0 
477.201569 88.0 
477.251404 649.0 
478.256165 295.0 
495.272278 121.0 
569.330444 98.0 
590.32019 126.0 
600.423035 160.0 
607.326477 1180.0 
608.333496 210.0 
613.348938 127.0 
625.323669 532.0 
644.343811 101.0 
661.330139 600.0 
662.319275 155.0 
1178.653687 184.0 
1431.049438 287.0 
1998.499146 242.0 
END IONS

BEGIN IONS
TITLE=Scan Number: 91
PEPMASS=705.18103
CHARGE=1+
MSLEVEL=2
FILENAME=A9_RA9_01_2740.mzXML
INSTRUMENT=ion trap
SCANS=91
SMILES=OCC1OC(C(O)C(O)C1O)C2=C(O)C3=C(OC4(C(OC5=CC(O)=C6CC(O)C(OC6=C45)C7=CC=C(O)C=C7)C8=CC=C(O)C=C8)C3=O)C=C2O
INCHIKEY=MYIUHDZRMLFLNJ-UHFFFAOYSA-N
73.609329 209.0 
83.012291 193.0 
85.02681 369.0 
86.032249 200.0 
97.030518 120.0 
103.041161 523.0 
107.047096 451.0 
109.033897 271.0 
109.052132 201.0 
111.043297 137.0 
121.026138 324.0 
125.019737 154.0 
127.037376 304.0 
131.05307 208.0 
133.815826 92.0 
135.048096 137.0 
136.073715 199.0 
149.025391 218.0 
149.059814 789.0 
150.069885 231.0 
151.038956 618.0 
153.020966 1392.0 
154.019501 158.0 
155.788513 235.0 
163.041565 186.0 
164.048584 242.0 
165.017487 2371.0 
165.050491 231.0 
166.019501 395.0 
166.997742 198.0 
167.416046 143.0 
171.025146 381.0 
173.028931 165.0 
175.038513 210.0 
176.991287 247.0 
177.019348 994.0 
177.059143 231.0 
178.021347 120.0 
180.51059 99.0 
181.064728 581.0 
182.700546 158.0 
183.03125 412.0 
183.183334 167.0 
184.039505 226.0 
184.997253 407.0 
189.018875 221.0 
191.013275 252.0 
191.035019 225.0 
193.01416 171.0 
194.343948 170.0 
194.491745 100.0 
194.912476 227.0 
195.029266 8586.0 
195.372971 149.0 
195.705521 89.0 
196.0336 490.0 
197.065369 129.0 
203.108841 175.0 
205.008179 127.0 
205.045959 454.0 
207.02919 141.0 
211.005966 120.0 
213.060211 126.0 
213.144165 166.0 
215.033356 94.0 
217.040527 181.0 
219.029373 3241.0 
219.102676 320.0 
220.032806 377.0 
225.054855 2965.0 
226.055649 489.0 
227.037659 872.0 
229.642517 85.0 
231.03035 110.0 
232.029144 131.0 
233.036896 92.0 
235.067078 120.0 
237.039581 215.0 
242.047333 203.0 
243.028748 382.0 
249.03952 1924.0 
250.047531 415.0 
253.053268 121.0 
254.055481 135.0 
254.990875 133.0 
255.067581 1698.0 
255.120712 107.0 
256.06897 207.0 
256.668182 119.0 
257.048157 141.0 
259.346588 209.0 
261.040314 1926.0 
261.539154 90.0 
262.035828 523.0 
263.75528 244.0 
266.030487 228.0 
271.06543 129.0 
273.076721 256.0 
277.040405 233.0 
279.051971 687.0 
280.050995 155.0 
280.985199 268.0 
281.046082 14669.0 
282.047668 3551.0 
283.061035 759.0 
285.078979 154.0 
288.043243 152.0 
289.598877 225.0 
294.053223 187.0 
294.088837 180.0 
294.846741 167.0 
295.056213 177.0 
296.06842 250.0 
297.062561 3006.0 
298.352234 207.0 
299.05545 27065.0 
299.298187 86.0 
299.480621 165.0 
299.818573 147.0 
300.060364 4141.0 
301.068909 550.0 
301.747009 90.0 
305.045349 137.0 
311.070831 269.0 
313.024658 129.0 
315.009308 113.0 
315.072784 8553.0 
316.077637 739.0 
318.140411 121.0 
321.071625 141.0 
323.087891 407.0 
325.078857 268.0 
334.05365 179.0 
337.062744 91.0 
338.078918 413.0 
340.088837 188.0 
341.061951 211.0 
343.057556 170.0 
344.097168 222.0 
345.121735 173.0 
348.734619 146.0 
349.067352 374.0 
352.047089 187.0 
353.067444 388.0 
354.022644 215.0 
354.063751 478.0 
361.101868 411.0 
363.03949 132.0 
365.078278 388.0 
374.105499 252.0 
377.064789 300.0 
379.082336 114.0 
383.072357 273.0 
387.13855 97.0 
389.063416 150.0 
391.085846 182.0 
391.123688 145.0 
392.075012 122.0 
393.106171 115.0 
395.056671 143.0 
399.091034 221.0 
401.084412 633.0 
402.090149 176.0 
403.076324 114.0 
405.092957 186.0 
407.082214 1153.0 
408.07724 516.0 
415.817413 170.0 
416.083893 84.0 
416.983826 331.0 
417.025635 153.0 
417.100098 4995.0 
418.102112 765.0 
419.073517 236.0 
419.119598 225.0 
419.980316 106.0 
420.089417 321.0 
421.088623 287.0 
431.08255 833.0 
432.096191 239.0 
435.112885 96.0 
436.12085 373.0 
443.09906 228.0 
445.090973 164.0 
447.117828 220.0 
448.074615 264.0 
448.873871 98.0 
449.089813 13015.0 
449.681396 200.0 
450.010132 138.0 
450.088257 2157.0 
451.09436 333.0 
452.566437 143.0 
456.074188 192.0 
458.67453 284.0 
463.097473 173.0 
467.925049 148.0 
473.094269 681.0 
479.107025 171.0 
487.123901 280.0 
488.108795 196.0 
503.085754 384.0 
504.064667 173.0 
504.106262 169.0 
509.106873 84.0 
515.095947 395.0 
516.100037 352.0 
532.150879 108.0 
533.11731 662.0 
534.108032 185.0 
540.125183 159.0 
551.122498 2177.0 
551.700745 140.0 
552.133972 330.0 
553.129822 260.0 
555.141602 144.0 
555.526306 82.0 
567.119568 451.0 
568.123474 596.0 
569.133057 5036.0 
569.196777 271.0 
570.067383 172.0 
570.127747 696.0 
571.161438 241.0 
573.068298 112.0 
581.139099 154.0 
586.142578 100.0 
587.148499 99.0 
609.141052 107.0 
634.170288 193.0 
704.30072 144.0 
705.176575 798.0 
1096.185303 185.0 
1793.467285 115.0 
END IONS

BEGIN IONS
TITLE=Scan Number: 92
PEPMASS=722.20801
CHARGE=1+
MSLEVEL=2
FILENAME=A9_RA9_01_2740.mzXML
INSTRUMENT=ion trap
SCANS=92
SMILES=OCC1OC(C(O)C(O)C1O)C2=C(O)C3=C(OC4(C(OC5=CC(O)=C6CC(O)C(OC6=C45)C7=CC=C(O)C=C7)C8=CC=C(O)C=C8)C3=O)C=C2O
INCHIKEY=MYIUHDZRMLFLNJ-UHFFFAOYSA-N
104.89724 173.0 
107.048332 169.0 
111.01178 277.0 
119.047523 179.0 
124.051659 221.0 
124.986023 129.0 
136.064377 173.0 
151.038422 104.0 
153.019394 540.0 
163.031662 184.0 
171.082367 138.0 
175.147247 224.0 
177.057053 130.0 
179.021576 157.0 
195.031113 1917.0 
197.064331 213.0 
203.044998 210.0 
219.029205 509.0 
219.100525 87.0 
225.048904 341.0 
241.034683 350.0 
243.027039 357.0 
249.046051 707.0 
254.054062 151.0 
255.062408 286.0 
259.644043 155.0 
261.041138 401.0 
263.139069 165.0 
281.044006 2021.0 
282.053284 671.0 
283.060455 286.0 
285.064728 271.0 
290.943726 183.0 
297.055511 418.0 
298.942719 150.0 
299.058044 3435.0 
300.02359 278.0 
300.058685 1240.0 
300.405701 170.0 
301.056732 216.0 
302.954987 141.0 
315.014801 126.0 
315.071289 631.0 
316.169159 137.0 
321.08139 123.0 
325.065033 351.0 
341.072083 241.0 
354.075897 186.0 
360.510986 217.0 
365.203094 223.0 
383.079712 543.0 
391.127991 122.0 
407.088867 298.0 
408.087769 244.0 
417.081329 305.0 
418.104218 359.0 
419.073456 129.0 
421.446625 112.0 
431.069275 397.0 
436.119019 137.0 
437.706757 171.0 
447.082092 140.0 
448.093231 377.0 
449.09024 2314.0 
450.089844 638.0 
451.331665 138.0 
473.088715 415.0 
486.116425 199.0 
504.098358 100.0 
507.667725 115.0 
515.097229 150.0 
515.132263 204.0 
551.075134 163.0 
551.119385 352.0 
563.120117 173.0 
567.128235 156.0 
569.08197 261.0 
569.132812 2025.0 
570.13855 601.0 
585.130005 387.0 
585.15332 408.0 
586.13446 111.0 
586.943604 152.0 
610.146423 128.0 
615.191833 334.0 
646.14325 85.0 
652.157898 160.0 
704.278442 142.0 
705.16748 327.0 
722.264587 98.0 
724.301941 152.0 
END IONS

BEGIN IONS
TITLE=Scan Number: 93
PEPMASS=324.17001
CHARGE=1+
MSLEVEL=2
FILENAME=E3_GE3_01_2628.mzXML
INSTRUMENT=ion trap
SCANS=93
SMILES=C[C@@H]1NC(=O)\C(NC1=O)=C\C2=C(NC3=CC=CC=C23)C(C)(C)C=C
INCHIKEY=MYRPIYZIAHOECW-SAIXKJTDSA-N
79.44561 283.0 
91.050667 215.0 
95.064445 211.0 
99.050537 228.0 
101.352089 274.0 
102.047325 218.0 
102.081032 369.0 
104.906296 104.0 
111.608932 203.0 
114.044487 94.0 
115.052971 750.0 
115.87603 161.0 
117.05677 1400.0 
118.065651 440.0 
127.053001 493.0 
128.05011 231.0 
129.059937 172.0 
130.065063 11905.0 
131.067169 888.0 
132.080292 515.0 
136.771835 146.0 
137.087036 126.0 
138.192429 112.0 
139.051804 297.0 
140.05127 473.0 
141.057938 1866.0 
141.252884 182.0 
142.064682 1180.0 
143.009338 194.0 
143.046082 130.0 
143.06955 444.0 
144.045868 190.0 
145.56311 313.0 
148.024796 193.0 
152.065002 150.0 
154.063812 675.0 
155.061539 5694.0 
155.150528 84.0 
156.067429 7866.0 
156.716888 174.0 
156.938232 166.0 
157.076477 19860.0 
157.109161 281.0 
157.158997 196.0 
158.081833 5078.0 
158.984985 99.0 
159.084824 1156.0 
160.069412 111.0 
161.076645 163.0 
163.587357 286.0 
166.067093 120.0 
167.061996 918.0 
168.076126 1414.0 
168.919632 256.0 
168.991089 225.0 
169.050552 698.0 
169.076294 6124.0 
169.220764 161.0 
170.079132 1359.0 
173.107758 137.0 
179.051132 176.0 
179.902679 108.0 
181.091415 151.0 
182.08075 1042.0 
182.128815 225.0 
183.091537 6507.0 
184.068085 783.0 
184.094955 626.0 
184.182755 111.0 
184.912506 117.0 
185.037445 141.0 
185.071854 10320.0 
185.106415 2697.0 
185.634415 114.0 
186.073761 709.0 
186.922058 299.0 
186.995865 376.0 
193.043976 173.0 
195.090103 1293.0 
196.078751 266.0 
197.041748 111.0 
197.070023 1442.0 
198.073227 125.0 
198.123245 88.0 
199.086639 177.0 
199.216263 273.0 
200.117508 208.0 
202.075821 466.0 
205.07988 220.0 
210.097656 707.0 
211.013824 133.0 
211.049957 449.0 
211.08783 1830.0 
212.018402 189.0 
212.076675 2647.0 
213.063278 775.0 
215.042343 161.0 
215.64325 113.0 
222.104797 212.0 
223.077362 262.0 
224.573975 224.0 
225.065903 744.0 
225.139404 178.0 
226.097351 233.0 
227.089584 255.0 
228.111649 1154.0 
228.474243 208.0 
230.310287 99.0 
230.903961 92.0 
235.112564 137.0 
238.09819 368.0 
239.084229 2285.0 
240.078247 918.0 
240.11116 481.0 
241.081268 884.0 
250.016937 208.0 
250.10022 136.0 
254.083145 192.0 
255.06308 180.0 
255.101776 3241.0 
256.056274 484.0 
256.108978 30864.0 
257.112274 1379.0 
268.108246 7750.0 
269.108948 1296.0 
270.444672 92.0 
280.116394 165.0 
288.16275 169.0 
324.173462 550.0 
325.168488 337.0 
1211.490356 209.0 
END IONS

BEGIN IONS
TITLE=Scan Number: 94
PEPMASS=383.05301
CHARGE=1+
MSLEVEL=2
FILENAME=E3_GE3_01_2628.mzXML
INSTRUMENT=ion trap
SCANS=94
SMILES=COC(=O)C1=CC(O)=CC(OC)=C1OC2=C(Cl)C(C)=CC(O)=C2C(O)=O
INCHIKEY=BIIZWIKNPOIDLS-UHFFFAOYSA-N
78.419617 212.0 
79.012672 316.0 
103.052895 174.0 
105.030113 487.0 
107.013474 177.0 
115.053787 455.0 
116.060966 210.0 
119.084511 712.0 
121.053795 278.0 
123.081665 183.0 
126.51049 255.0 
129.008377 97.0 
133.102417 209.0 
133.592606 293.0 
134.002182 280.0 
135.007339 140.0 
137.020691 269.0 
137.056656 186.0 
138.981796 175.0 
141.643188 262.0 
143.047974 155.0 
143.078125 263.0 
144.040558 123.0 
144.059814 326.0 
145.064316 331.0 
149.440781 241.0 
149.68927 88.0 
150.027969 201.0 
151.941849 95.0 
152.007599 219.0 
154.039627 177.0 
154.986313 453.0 
155.047714 353.0 
155.996277 158.0 
156.041046 143.0 
157.06633 155.0 
159.079285 253.0 
160.050125 151.0 
162.019287 155.0 
164.21611 89.0 
164.420212 207.0 
165.009293 250.0 
169.003708 214.0 
169.995743 221.0 
170.074387 202.0 
172.999939 122.0 
178.016678 471.0 
178.992203 144.0 
179.02478 1341.0 
179.066528 197.0 
180.030792 168.0 
180.269241 169.0 
181.00264 182.0 
181.024582 184.0 
182.025269 104.0 
182.071823 118.0 
182.973862 223.0 
183.023026 255.0 
183.546738 174.0 
183.940186 297.0 
183.99295 230.0 
184.052032 163.0 
185.000671 948.0 
185.063309 194.0 
186.004349 361.0 
186.030777 140.0 
187.070938 163.0 
190.22142 274.0 
193.044388 149.0 
194.987823 92.0 
196.024689 124.0 
197.058411 537.0 
198.035538 232.0 
198.067352 305.0 
200.052811 334.0 
201.004501 219.0 
201.034073 351.0 
201.095169 193.0 
202.000153 108.0 
202.059433 215.0 
204.932205 133.0 
206.014496 1296.0 
207.020599 683.0 
208.031387 213.0 
209.063995 186.0 
210.010849 353.0 
210.158936 209.0 
211.011154 178.0 
211.04538 145.0 
212.004196 112.0 
213.051987 617.0 
215.073792 598.0 
216.068817 221.0 
217.047348 151.0 
217.713226 161.0 
218.011459 744.0 
219.016296 315.0 
220.992279 651.0 
222.009384 608.0 
222.0401 239.0 
223.005264 183.0 
224.12355 172.0 
225.014359 87.0 
225.047241 123.0 
227.038818 590.0 
228.042419 448.0 
229.056122 163.0 
229.083572 206.0 
229.409729 154.0 
231.020538 155.0 
232.031464 752.0 
233.00972 141.0 
234.006317 3944.0 
234.943405 408.0 
235.014526 20355.0 
236.017334 3520.0 
236.903625 78.0 
236.94014 135.0 
237.015411 2744.0 
237.492691 130.0 
238.006287 265.0 
238.987976 214.0 
239.931259 196.0 
240.025452 171.0 
241.048492 627.0 
242.008118 166.0 
242.054703 1719.0 
243.060226 1281.0 
243.859528 181.0 
244.063644 330.0 
244.927719 221.0 
245.999481 555.0 
246.77597 193.0 
248.014999 507.0 
249.028488 1180.0 
250.009354 471.0 
250.038834 322.0 
253.02005 202.0 
253.983246 162.0 
254.01918 167.0 
255.486755 202.0 
256.032654 427.0 
257.042999 257.0 
257.079102 991.0 
258.084961 129.0 
260.03244 186.0 
260.515442 178.0 
260.816772 101.0 
260.879395 107.0 
261.03064 3597.0 
261.582947 173.0 
261.867737 161.0 
261.951447 348.0 
262.002625 11227.0 
262.111603 105.0 
262.924591 163.0 
262.953552 402.0 
263.009552 25874.0 
263.257904 87.0 
263.654633 193.0 
263.967682 155.0 
264.01297 3684.0 
264.730225 92.0 
265.005524 2351.0 
266.003845 284.0 
269.085632 275.0 
270.054565 1306.0 
270.972717 161.0 
271.059845 5242.0 
271.306915 204.0 
271.999939 143.0 
272.063263 714.0 
273.999329 276.0 
276.017487 347.0 
276.814606 162.0 
276.948486 156.0 
277.024109 7329.0 
278.031738 3660.0 
279.010925 177.0 
279.043274 1018.0 
280.024078 352.0 
281.018555 344.0 
281.226318 142.0 
282.017517 149.0 
283.016602 121.0 
283.97821 117.0 
284.994049 222.0 
285.016815 263.0 
285.074768 3426.0 
286.01236 124.0 
286.084198 8573.0 
286.146271 191.0 
287.085815 1169.0 
287.502899 202.0 
288.010773 147.0 
289.031525 773.0 
289.989899 483.0 
290.035675 2126.0 
290.718353 114.0 
290.890717 114.0 
290.922119 192.0 
291.00528 28793.0 
291.233002 176.0 
291.489319 189.0 
291.611359 129.0 
291.938782 220.0 
292.010162 5554.0 
292.929504 145.0 
292.999939 3996.0 
293.088501 99.0 
293.994141 1343.0 
294.635071 85.0 
294.995178 91.0 
295.044861 394.0 
295.778076 277.0 
295.973572 155.0 
297.050385 312.0 
298.045105 128.0 
298.784668 210.0 
301.927612 88.0 
302.023224 171.0 
302.991486 172.0 
303.070007 131.0 
303.399292 113.0 
304.431519 104.0 
305.020447 6768.0 
305.350983 86.0 
305.571228 301.0 
305.849457 135.0 
305.89566 457.0 
306.028137 95587.0 
306.089172 196.0 
306.949707 135.0 
307.032501 13991.0 
307.578705 200.0 
308.024658 5422.0 
309.022125 148.0 
309.11145 89.0 
309.385223 125.0 
310.121796 159.0 
315.048889 165.0 
317.898651 376.0 
317.99176 11085.0 
318.997192 1206.0 
319.991058 396.0 
320.600586 117.0 
320.894928 146.0 
320.925262 206.0 
320.955627 275.0 
321.051483 35700.0 
321.602875 168.0 
321.993378 174.0 
322.054962 6600.0 
323.054382 1135.0 
323.218262 167.0 
323.445038 95.0 
323.765442 200.0 
324.097107 102.0 
324.481934 159.0 
327.877167 205.0 
331.911865 84.0 
332.921051 210.0 
333.014374 42494.0 
333.978058 495.0 
334.020325 4169.0 
334.203491 304.0 
335.02359 325.0 
335.839661 182.0 
336.170868 104.0 
363.272186 182.0 
365.036102 858.0 
366.048828 263.0 
383.166901 223.0 
426.804749 296.0 
END IONS

BEGIN IONS
TITLE=Scan Number: 95
PEPMASS=400.07999
CHARGE=1+
MSLEVEL=2
FILENAME=E3_GE3_01_2628.mzXML
INSTRUMENT=ion trap
SCANS=95
SMILES=COC(=O)C1=CC(O)=CC(OC)=C1OC2=C(Cl)C(C)=CC(O)=C2C(O)=O
INCHIKEY=BIIZWIKNPOIDLS-UHFFFAOYSA-N
105.853966 127.0 
142.078644 204.0 
145.428467 128.0 
150.063934 198.0 
156.067657 189.0 
157.073654 165.0 
166.010513 105.0 
174.102982 128.0 
178.675644 259.0 
180.006729 187.0 
185.070877 135.0 
186.068878 326.0 
192.001602 159.0 
198.068542 156.0 
204.004547 163.0 
214.069061 223.0 
215.065933 94.0 
218.011978 124.0 
219.016891 119.0 
224.001068 155.0 
232.03511 296.0 
233.334686 163.0 
234.003525 508.0 
234.966827 192.0 
235.016129 1123.0 
236.005447 200.0 
237.026596 231.0 
243.060913 323.0 
243.09671 277.0 
249.033356 308.0 
257.086304 452.0 
260.981628 219.0 
262.003174 1764.0 
262.04657 204.0 
262.307648 137.0 
263.009827 4339.0 
264.018158 571.0 
265.00174 285.0 
266.061829 153.0 
269.050934 148.0 
270.053253 218.0 
271.057556 1170.0 
272.069763 204.0 
273.870728 135.0 
277.023712 1174.0 
278.026947 616.0 
279.015747 218.0 
285.064117 137.0 
286.078735 2370.0 
287.087921 359.0 
288.008636 129.0 
289.019165 361.0 
289.175629 123.0 
290.034607 566.0 
291.005493 4327.0 
291.927765 223.0 
292.004608 1440.0 
293.000031 1813.0 
294.012573 203.0 
297.060638 309.0 
303.031647 98.0 
304.933472 154.0 
305.021118 1790.0 
305.954468 156.0 
306.026672 18927.0 
306.994324 114.0 
307.03299 3937.0 
308.022675 1197.0 
309.440674 126.0 
317.989868 1459.0 
319.946045 89.0 
319.987579 323.0 
321.049316 9274.0 
322.058044 688.0 
324.420166 88.0 
325.055878 185.0 
330.176666 105.0 
333.015472 7667.0 
333.677399 208.0 
333.866577 154.0 
334.020813 1510.0 
334.629852 105.0 
335.0159 496.0 
365.039856 1902.0 
366.045319 322.0 
1929.004028 343.0 
END IONS

BEGIN IONS
TITLE=Scan Number: 96
PEPMASS=407.185
CHARGE=1+
MSLEVEL=2
FILENAME=E3_GE3_01_2628.mzXML
INSTRUMENT=ion trap
SCANS=96
SMILES=CC(C)=CCC1=C(O)C=CC(=C1)C2=COC3=C(CC=C(C)C)C(O)=CC(O)=C3C2=O
INCHIKEY=FXJPTJQFJYNFKC-UHFFFAOYSA-N
76.431 326.0 
76.711075 186.0 
77.553421 138.0 
77.567596 301.0 
79.016716 609.0 
80.691231 183.0 
80.722488 300.0 
81.033478 260.0 
83.01252 989.0 
84.16748 252.0 
85.463043 135.0 
86.323677 315.0 
87.731636 262.0 
87.750809 320.0 
89.567261 295.0 
90.045319 220.0 
91.259995 116.0 
92.923157 268.0 
93.613258 132.0 
93.813255 253.0 
94.592148 219.0 
95.050034 860.0 
96.496948 236.0 
100.648613 329.0 
100.738052 182.0 
101.014404 269.0 
102.04818 176.0 
103.017189 417.0 
103.053619 5498.0 
104.061539 939.0 
105.045967 1098.0 
106.999977 219.0 
108.019379 196.0 
109.02565 306.0 
113.076721 320.0 
113.446091 157.0 
113.735939 232.0 
114.138687 182.0 
115.307922 144.0 
116.086617 169.0 
117.296417 165.0 
119.04525 315.0 
119.445808 259.0 
120.655685 122.0 
120.883118 271.0 
121.028961 2802.0 
121.188805 187.0 
122.032799 306.0 
123.006561 995.0 
124.203697 255.0 
127.051643 222.0 
128.060638 349.0 
129.069534 193.0 
131.048981 56944.0 
131.466522 97.0 
132.051651 3368.0 
132.958099 136.0 
133.028595 442.0 
133.084564 96.0 
134.082474 190.0 
135.044098 151.0 
137.023056 1441.0 
139.038147 224.0 
139.256805 196.0 
140.477509 409.0 
140.993774 208.0 
141.017746 4842.0 
141.071823 610.0 
141.634216 284.0 
141.816635 211.0 
142.019211 277.0 
143.080582 306.0 
144.056885 374.0 
145.061401 324.0 
146.039413 203.0 
147.042328 346.0 
148.707672 93.0 
148.927414 200.0 
149.021896 239.0 
149.055328 202.0 
151.042313 157.0 
152.058868 473.0 
153.068771 415.0 
154.081543 210.0 
155.036606 921.0 
155.086182 463.0 
156.263351 119.0 
157.026505 1245.0 
157.063766 492.0 
157.940323 353.0 
158.038086 309.0 
159.045715 354.0 
159.100449 123.0 
160.14946 238.0 
160.791473 153.0 
161.02655 353.0 
161.394928 262.0 
162.02597 156.0 
164.04306 169.0 
164.766754 153.0 
165.018112 20488.0 
165.068756 514.0 
165.350296 130.0 
165.741043 149.0 
166.023529 1102.0 
166.069504 324.0 
166.241318 109.0 
167.032471 1303.0 
168.058502 367.0 
169.067245 1080.0 
170.073929 150.0 
170.581696 224.0 
171.042496 1153.0 
171.081619 477.0 
171.331207 74.0 
172.050491 560.0 
173.949203 127.0 
174.06662 167.0 
174.181747 70.0 
174.414688 110.0 
175.039169 1708.0 
175.133255 123.0 
175.307877 274.0 
175.954727 97.0 
176.067032 126.0 
177.067947 136.0 
177.438629 233.0 
178.203964 92.0 
179.032852 218.0 
179.066605 140.0 
179.087509 184.0 
181.065674 388.0 
182.040207 396.0 
182.06778 476.0 
182.162125 206.0 
183.02916 7352.0 
183.07338 741.0 
183.412918 82.0 
183.822556 235.0 
184.032043 1126.0 
185.059097 413.0 
185.094971 270.0 
186.053452 136.0 
187.037033 357.0 
188.846695 67.0 
189.01799 159.0 
189.056335 117.0 
190.066086 125.0 
191.036133 313.0 
193.061646 303.0 
194.068817 215.0 
195.048294 306.0 
195.079681 252.0 
196.065292 178.0 
197.056625 336.0 
198.065704 199.0 
199.040115 1878.0 
199.07663 970.0 
199.837708 90.0 
200.960434 196.0 
202.857376 298.0 
205.064194 167.0 
205.95575 297.0 
206.962173 206.0 
207.086685 325.0 
209.072678 159.0 
211.017319 149.0 
211.07753 1283.0 
213.056335 1407.0 
214.060776 446.0 
217.048279 517.0 
217.370193 159.0 
218.041565 183.0 
218.499878 208.0 
219.07576 171.0 
219.194397 110.0 
219.937775 296.0 
220.05188 190.0 
221.06337 662.0 
221.848969 111.0 
222.066437 109.0 
222.855713 84.0 
224.035294 112.0 
224.362289 193.0 
224.40332 206.0 
225.046875 520.0 
225.214813 273.0 
225.264999 288.0 
226.049515 220.0 
227.070312 623.0 
227.103912 91.0 
227.877151 216.0 
229.05397 1453.0 
230.22319 293.0 
232.083679 190.0 
232.123032 296.0 
232.704407 290.0 
235.039658 116.0 
236.646561 278.0 
237.053207 116.0 
238.060257 396.0 
239.035172 764.0 
239.069397 4001.0 
239.309143 282.0 
239.427353 243.0 
240.079102 549.0 
240.370468 99.0 
241.052307 782.0 
241.092194 215.0 
242.058807 418.0 
242.439056 126.0 
242.680389 115.0 
244.02002 229.0 
249.053665 1286.0 
249.721817 196.0 
250.060303 130.0 
251.07254 361.0 
251.339172 237.0 
252.033432 232.0 
252.081039 394.0 
253.047241 657.0 
254.00737 237.0 
254.047043 287.0 
254.265091 119.0 
255.064835 3086.0 
256.032806 213.0 
256.077057 438.0 
256.500824 241.0 
256.734344 199.0 
257.049622 150.0 
257.076538 139.0 
257.430145 242.0 
259.067719 238.0 
260.323669 187.0 
261.092285 168.0 
261.608643 236.0 
262.106873 174.0 
262.29541 147.0 
262.828705 330.0 
263.547302 234.0 
265.050903 738.0 
266.057678 715.0 
266.571838 120.0 
266.944336 79.0 
267.065918 10930.0 
267.156311 244.0 
268.073578 3014.0 
269.078003 540.0 
269.515656 107.0 
270.243286 91.0 
271.063293 136.0 
271.410889 218.0 
274.148071 192.0 
275.725189 247.0 
276.09201 248.0 
276.641541 265.0 
277.049469 661.0 
277.080963 198.0 
278.058075 2639.0 
279.062775 940.0 
280.035919 413.0 
280.515747 133.0 
280.57489 270.0 
281.742676 299.0 
282.20816 136.0 
282.933411 375.0 
282.967468 305.0 
283.060577 110791.0 
283.128723 102.0 
283.355316 270.0 
283.390564 158.0 
283.48938 424.0 
283.722443 118.0 
283.824127 84.0 
284.063599 15694.0 
284.118469 240.0 
284.396606 236.0 
284.730011 147.0 
285.065643 912.0 
285.325745 100.0 
285.734894 107.0 
285.942383 140.0 
286.03833 125.0 
286.326874 166.0 
287.233612 182.0 
288.851685 124.0 
290.067322 168.0 
290.100525 198.0 
291.078217 218.0 
291.305023 139.0 
292.067352 161.0 
292.129242 104.0 
293.047272 251.0 
293.099518 215.0 
293.132904 107.0 
293.537659 292.0 
293.71875 151.0 
293.757599 193.0 
293.928284 229.0 
294.048828 1833.0 
294.154388 236.0 
294.211731 139.0 
294.523224 430.0 
294.683502 373.0 
294.757141 222.0 
294.827179 98.0 
294.873688 401.0 
294.90509 394.0 
294.951843 314.0 
295.06015 179448.0 
295.258057 153.0 
295.310089 420.0 
295.365204 94.0 
295.406281 335.0 
295.484436 148.0 
295.516174 496.0 
295.837341 112.0 
295.979126 126.0 
296.065552 37802.0 
296.130524 198.0 
296.154175 251.0 
296.337402 150.0 
296.490417 98.0 
296.675659 152.0 
296.795715 90.0 
296.921112 111.0 
297.067444 2395.0 
298.139496 92.0 
298.197052 134.0 
298.291504 112.0 
299.26004 173.0 
299.33493 127.0 
301.087006 222.0 
301.24646 99.0 
301.746918 81.0 
303.379425 119.0 
303.848846 263.0 
305.403351 299.0 
305.893219 239.0 
307.062195 426.0 
307.107269 185.0 
307.963531 245.0 
308.064026 264.0 
309.077942 3608.0 
310.078918 572.0 
313.059845 170.0 
313.155334 73.0 
313.53717 154.0 
314.077911 285.0 
315.01181 161.0 
319.095123 111.0 
321.011871 211.0 
321.058624 260.0 
323.081543 166.0 
324.116943 149.0 
324.347961 372.0 
327.921265 254.0 
328.059326 139.0 
330.609589 183.0 
331.105469 168.0 
334.083893 306.0 
335.098633 348.0 
336.085083 153.0 
336.161469 202.0 
338.786377 192.0 
339.120789 1210.0 
340.12738 109.0 
344.105042 118.0 
345.610809 148.0 
345.843964 104.0 
347.704376 144.0 
348.456238 101.0 
348.820892 284.0 
349.213562 105.0 
349.346344 75.0 
349.479889 197.0 
349.642914 225.0 
349.863556 261.0 
349.971619 107.0 
350.21109 90.0 
350.285156 177.0 
350.338104 182.0 
350.418335 164.0 
350.561707 254.0 
350.633118 215.0 
350.66156 251.0 
350.752075 139.0 
350.886536 160.0 
350.959717 1025.0 
351.123047 503403.0 
351.20697 475.0 
351.264282 469.0 
351.308258 224.0 
351.362793 146.0 
351.404022 413.0 
351.450775 232.0 
351.526764 189.0 
351.561981 241.0 
351.597198 247.0 
351.637909 488.0 
351.718628 208.0 
351.75058 230.0 
351.832245 325.0 
351.868439 301.0 
352.019714 528.0 
352.047821 637.0 
352.126648 82072.0 
352.223236 225.0 
352.262512 346.0 
352.355438 220.0 
352.404755 232.0 
352.46167 94.0 
352.690552 80.0 
352.723846 79.0 
352.822662 99.0 
352.952515 279.0 
352.994171 72.0 
353.130951 1418.0 
353.29303 100.0 
353.570831 92.0 
353.856964 97.0 
353.895081 121.0 
354.048004 76.0 
354.103302 222.0 
354.171326 116.0 
354.237122 179.0 
354.402557 106.0 
354.465942 440.0 
354.52121 110.0 
354.647705 269.0 
354.710968 294.0 
355.014465 87.0 
355.590088 96.0 
355.663025 74.0 
356.269928 89.0 
356.435638 88.0 
358.677307 108.0 
362.350739 87.0 
363.744751 127.0 
364.346497 232.0 
365.227142 87.0 
368.290802 93.0 
369.415161 109.0 
369.528931 136.0 
370.321503 174.0 
387.541077 222.0 
406.144745 92.0 
406.29541 236.0 
406.989838 106.0 
407.066101 163.0 
407.109894 407.0 
407.186951 16023.0 
407.374847 220.0 
407.683838 177.0 
408.192352 2710.0 
408.393951 77.0 
409.187836 98.0 
410.522827 85.0 
789.880432 75.0 
1854.621338 177.0 
1960.746338 330.0 
END IONS

BEGIN IONS
TITLE=Scan Number: 97
PEPMASS=421.14899
CHARGE=1+
MSLEVEL=2
FILENAME=E3_GE3_01_2628.mzXML
INSTRUMENT=ion trap
SCANS=97
SMILES=OC[C@H]1O[C@@H](OC2=CC(O)=C(C=C2)C(=O)CCC3=CC=C(O)C=C3)[C@H](O)[C@@H](O)[C@H]1O
INCHIKEY=BIZAJDCIOZNYLQ-XDWAVFMPSA-N
91.088455 110.0 
95.049034 114.0 
107.049545 8102.0 
108.048889 884.0 
109.099182 142.0 
133.101151 94.0 
153.055069 1258.0 
182.08905 221.0 
192.103271 137.0 
229.088608 118.0 
259.097656 1470.0 
297.03952 170.0 
325.103638 143.0 
377.02066 148.0 
1708.66687 180.0 
END IONS

BEGIN IONS
TITLE=Scan Number: 98
PEPMASS=438.17599
CHARGE=1+
MSLEVEL=2
FILENAME=E3_GE3_01_2628.mzXML
INSTRUMENT=ion trap
SCANS=98
SMILES=OC[C@H]1O[C@@H](OC2=CC(O)=C(C=C2)C(=O)CCC3=CC=C(O)C=C3)[C@H](O)[C@@H](O)[C@H]1O
INCHIKEY=BIZAJDCIOZNYLQ-XDWAVFMPSA-N
84.749016 229.0 
105.043434 205.0 
107.049004 16569.0 
108.05275 714.0 
119.090225 184.0 
121.061531 150.0 
123.04451 114.0 
131.055679 206.0 
135.041458 328.0 
137.019699 213.0 
149.063477 358.0 
153.030624 336.0 
153.056061 2109.0 
154.058365 259.0 
154.959213 123.0 
205.002289 266.0 
212.089005 197.0 
222.010559 318.0 
259.097839 7833.0 
260.102203 938.0 
421.151611 170.0 
1728.019775 240.0 
END IONS

BEGIN IONS
TITLE=Scan Number: 99
PEPMASS=449.108
CHARGE=1+
MSLEVEL=2
FILENAME=E3_GE3_01_2628.mzXML
INSTRUMENT=ion trap
SCANS=99
SMILES=OCC1OC(C(O)C(O)C1O)C2=C(O)C3=C(OC(=CC3=O)C4=CC(O)=C(O)C=C4)C=C2O
INCHIKEY=ODBRNZZJSYPIDI-UHFFFAOYSA-N
85.018585 216.0 
85.032677 242.0 
86.863419 205.0 
88.148132 154.0 
94.869148 113.0 
95.048332 223.0 
95.872147 319.0 
97.013931 315.0 
99.513466 105.0 
100.172302 316.0 
101.026146 204.0 
103.038628 174.0 
104.055679 151.0 
105.032249 573.0 
107.085793 112.0 
107.425201 263.0 
108.075294 151.0 
109.011467 253.0 
109.024895 265.0 
110.779358 105.0 
117.028488 141.0 
119.048195 512.0 
121.027206 1119.0 
121.063103 215.0 
123.009521 378.0 
123.642647 203.0 
126.072914 138.0 
126.533188 227.0 
126.713463 258.0 
128.737396 325.0 
130.109558 111.0 
131.045181 203.0 
132.050262 215.0 
134.02739 132.0 
135.00415 182.0 
135.046402 1863.0 
135.108902 223.0 
136.206009 179.0 
137.022797 4253.0 
137.064163 150.0 
138.025787 475.0 
139.172653 117.0 
141.017319 775.0 
147.044662 311.0 
147.096817 236.0 
148.047531 114.0 
149.020721 1662.0 
149.131287 173.0 
150.024612 819.0 
157.294647 311.0 
158.037415 132.0 
159.046585 456.0 
161.023956 2415.0 
161.142105 134.0 
162.024109 163.0 
163.002914 151.0 
163.039246 1042.0 
165.018448 9686.0 
165.068924 259.0 
165.36734 224.0 
166.025803 479.0 
166.241928 135.0 
167.031052 627.0 
169.029053 406.0 
169.067947 171.0 
171.044067 118.0 
173.062912 185.0 
174.063202 212.0 
175.611084 285.0 
176.044769 394.0 
177.015335 1326.0 
177.056839 148.0 
178.024612 366.0 
178.77742 323.0 
178.809357 204.0 
179.007706 280.0 
179.034897 1382.0 
180.033112 122.0 
181.050919 146.0 
182.068893 306.0 
183.030151 2828.0 
183.087799 118.0 
183.557693 231.0 
184.035141 315.0 
184.334381 304.0 
185.023514 180.0 
187.040924 972.0 
187.081619 236.0 
189.014694 507.0 
190.017166 167.0 
191.033264 1257.0 
191.513306 120.0 
192.039993 123.0 
193.007797 163.0 
193.049561 154.0 
195.02887 1077.0 
195.07489 400.0 
197.009003 175.0 
197.048676 91.0 
200.082535 177.0 
201.017609 194.0 
203.035522 947.0 
204.037994 234.0 
205.049042 455.0 
206.055038 154.0 
209.043045 413.0 
210.06517 156.0 
211.038376 193.0 
212.084518 232.0 
213.639633 228.0 
214.668823 103.0 
215.03743 513.0 
215.153046 142.0 
216.03772 186.0 
216.130035 174.0 
218.055222 207.0 
220.181778 117.0 
221.039749 138.0 
223.063843 270.0 
223.9505 214.0 
225.054092 188.0 
227.056961 360.0 
229.055313 191.0 
230.045654 312.0 
231.028519 189.0 
231.058731 334.0 
232.020401 185.0 
232.038116 232.0 
233.045746 123.0 
236.080338 99.0 
237.951218 163.0 
238.666901 300.0 
238.837631 126.0 
240.11824 285.0 
241.050797 159.0 
243.010376 240.0 
243.031769 527.0 
243.064682 253.0 
244.022186 318.0 
244.05986 467.0 
245.024109 184.0 
245.047897 657.0 
246.046463 301.0 
247.020493 155.0 
250.046982 514.0 
254.062881 214.0 
255.068726 1497.0 
257.046051 203.0 
258.016907 144.0 
258.047821 436.0 
259.064423 265.0 
259.438324 293.0 
261.048035 514.0 
263.890961 166.0 
265.041626 467.0 
267.093201 148.0 
268.064148 154.0 
269.065826 237.0 
269.082153 247.0 
269.819305 306.0 
271.058075 843.0 
272.028198 294.0 
272.062927 1727.0 
272.910126 221.0 
273.03421 221.0 
273.082977 109.0 
277.067261 124.0 
279.07016 301.0 
279.633148 110.0 
280.071167 231.0 
280.971588 145.0 
282.048767 216.0 
282.963806 140.0 
283.062805 4826.0 
283.447632 113.0 
284.072723 734.0 
284.843414 106.0 
285.262848 185.0 
286.05011 3615.0 
286.52002 118.0 
287.055511 6547.0 
288.056305 612.0 
289.031921 159.0 
289.066315 265.0 
289.135803 124.0 
291.069 101.0 
293.096985 318.0 
295.064758 684.0 
296.073181 115.0 
296.621552 192.0 
297.043213 1407.0 
297.076843 5966.0 
298.032867 149.0 
298.074829 929.0 
298.403717 160.0 
298.908661 157.0 
298.980927 718.0 
299.055939 73574.0 
299.131439 458.0 
299.921112 343.0 
300.002075 600.0 
300.061401 22624.0 
300.538727 243.0 
301.064545 1961.0 
301.460815 98.0 
301.56897 224.0 
302.062836 224.0 
302.219879 226.0 
302.276733 137.0 
302.942505 94.0 
303.069763 202.0 
303.227844 265.0 
303.344086 179.0 
305.081482 137.0 
307.064636 335.0 
307.664612 330.0 
309.073822 456.0 
310.510406 276.0 
311.011841 362.0 
311.055084 7334.0 
311.088959 1463.0 
312.003418 292.0 
312.059967 1838.0 
312.106415 815.0 
312.181641 111.0 
312.337921 218.0 
312.408203 159.0 
312.883118 219.0 
313.069336 4399.0 
314.073547 946.0 
314.276306 160.0 
315.056519 255.0 
315.831116 123.0 
319.052124 149.0 
321.018341 130.0 
321.076416 2378.0 
322.08017 309.0 
323.063416 1871.0 
323.972107 135.0 
324.00119 255.0 
324.062347 2098.0 
324.465149 174.0 
325.033081 2802.0 
325.071869 14168.0 
326.075989 1267.0 
327.052338 1536.0 
328.056885 230.0 
328.089081 358.0 
328.148438 107.0 
328.210297 300.0 
328.390778 123.0 
328.463135 126.0 
328.924377 179.0 
328.979156 574.0 
329.066284 68407.0 
329.33429 164.0 
329.508942 108.0 
329.772675 100.0 
329.820221 262.0 
329.877075 89.0 
330.022797 419.0 
330.069397 10706.0 
330.621918 446.0 
330.92746 96.0 
331.074066 354.0 
332.389435 138.0 
337.071838 1131.0 
338.069122 287.0 
339.016174 105.0 
339.086029 12288.0 
340.044312 330.0 
340.095062 1639.0 
340.635925 171.0 
341.068573 785.0 
342.035736 218.0 
342.073181 475.0 
342.901764 132.0 
343.083527 447.0 
349.067383 2892.0 
350.063293 591.0 
350.103058 208.0 
351.04422 441.0 
351.087067 280.0 
352.467712 129.0 
352.995239 115.0 
353.065948 27175.0 
353.240112 112.0 
354.02005 378.0 
354.071747 4785.0 
354.116974 164.0 
355.060333 604.0 
355.192688 127.0 
356.116882 102.0 
357.054932 142.0 
358.551392 191.0 
359.063477 496.0 
360.0784 113.0 
365.064941 10695.0 
365.408112 351.0 
366.066956 2089.0 
366.971649 167.0 
367.004181 152.0 
367.081604 2771.0 
368.082855 326.0 
371.077759 539.0 
373.061859 221.0 
376.999878 182.0 
377.067871 6062.0 
378.067047 1328.0 
378.301727 150.0 
379.075439 225.0 
382.131683 126.0 
383.076935 10866.0 
383.562592 155.0 
384.085724 1574.0 
385.08374 132.0 
393.345245 89.0 
395.078674 19052.0 
395.3479 123.0 
395.60672 87.0 
395.89151 153.0 
396.079773 4176.0 
397.844147 97.0 
398.190186 121.0 
398.4151 150.0 
401.077454 382.0 
412.997559 232.0 
413.087982 17293.0 
414.091919 3665.0 
414.824219 141.0 
415.086365 477.0 
416.815735 132.0 
421.101807 223.0 
427.156525 134.0 
431.099792 11668.0 
432.105652 2472.0 
449.107941 5700.0 
450.116028 235.0 
451.198059 239.0 
583.473083 94.0 
621.337097 88.0 
671.387695 283.0 
927.510864 164.0 
1980.610718 146.0 
1988.509155 128.0 
END IONS

BEGIN IONS
TITLE=Scan Number: 100
PEPMASS=471.09
CHARGE=1+
MSLEVEL=2
FILENAME=E3_GE3_01_2628.mzXML
INSTRUMENT=ion trap
SCANS=100
SMILES=OCC1OC(C(O)C(O)C1O)C2=C(O)C3=C(OC(=CC3=O)C4=CC(O)=C(O)C=C4)C=C2O
INCHIKEY=ODBRNZZJSYPIDI-UHFFFAOYSA-N
80.728294 197.0 
102.018272 140.0 
115.308319 182.0 
116.053627 11067.0 
116.121056 253.0 
117.040047 195.0 
117.056259 229.0 
117.22863 81.0 
118.071144 262.0 
121.955757 116.0 
124.626801 253.0 
128.141083 833.0 
134.910126 170.0 
134.98317 214.0 
172.040085 263.0 
172.065765 379.0 
172.116241 16926.0 
172.286102 109.0 
173.122391 1709.0 
174.109055 217.0 
192.010574 113.0 
195.988235 191.0 
204.091232 291.0 
208.072708 142.0 
209.083298 212.0 
215.175385 173.0 
228.212418 217.0 
234.04277 141.0 
250.909714 235.0 
252.052658 152.0 
254.064423 119.0 
268.022247 396.0 
271.259155 196.0 
284.021606 271.0 
285.026245 426.0 
286.0 193.0 
286.03891 1756.0 
289.910797 118.0 
298.999847 90.0 
319.176392 213.0 
331.666565 112.0 
345.910889 205.0 
356.06546 163.0 
395.16452 302.0 
468.905182 100.0 
470.32782 141.0 
470.389496 1900.0 
470.552612 116.0 
470.67276 190.0 
470.956421 174.0 
471.010529 423.0 
471.108734 26333.0 
471.258636 135.0 
471.336884 323.0 
471.398926 141.0 
472.040497 179.0 
472.111328 7267.0 
472.395905 286.0 
472.976746 95.0 
473.111053 1411.0 
1587.581909 344.0 
1913.487549 235.0 
1982.951782 99.0 
END IONS

BEGIN IONS
TITLE=Scan Number: 101
PEPMASS=484.14499
CHARGE=1+
MSLEVEL=2
FILENAME=E3_GE3_01_2628.mzXML
INSTRUMENT=ion trap
SCANS=101
SMILES=OC[C@H]1O[C@@H](OC2=C(O)C=CC(=C2)[C@@H]3OC4=CC(O)=CC(O)=C4C(=O)[C@H]3O)[C@H](O)[C@@H](O)[C@@H]1O
INCHIKEY=CZOXIGOPZRIBJM-TZWBTVLISA-N
81.024979 169.0 
85.027191 2102.0 
87.046875 283.0 
91.040802 180.0 
93.069717 287.0 
97.028351 1151.0 
98.02993 203.0 
99.044044 353.0 
107.037674 210.0 
109.025993 152.0 
121.02861 730.0 
121.065231 658.0 
122.032608 158.0 
123.043182 2966.0 
124.046104 313.0 
125.046974 128.0 
127.042183 791.0 
128.034912 162.0 
129.065933 101.0 
131.045837 459.0 
132.050888 188.0 
132.084351 139.0 
133.028763 638.0 
135.043732 372.0 
137.013489 123.0 
137.062302 310.0 
142.071777 218.0 
143.094406 177.0 
145.04863 555.0 
147.045166 119.0 
147.333862 307.0 
148.926453 163.0 
148.977905 151.0 
149.023407 6851.0 
149.05806 499.0 
150.028625 477.0 
151.038422 434.0 
151.469238 93.0 
152.038025 181.0 
153.017944 15139.0 
153.922012 176.0 
154.023956 745.0 
157.024368 205.0 
159.083359 173.0 
161.022675 1178.0 
163.044327 96.0 
167.034515 780.0 
168.035461 489.0 
171.029556 504.0 
173.023956 138.0 
179.031204 501.0 
185.057022 443.0 
186.06839 89.0 
191.070984 117.0 
195.030792 1976.0 
196.033539 416.0 
197.012375 177.0 
199.027374 225.0 
203.025803 350.0 
213.055435 869.0 
214.053299 383.0 
230.052216 84.0 
230.996124 165.0 
231.064926 8477.0 
232.022507 185.0 
232.066895 1448.0 
233.083542 382.0 
237.017838 218.0 
241.045212 592.0 
242.049988 720.0 
244.098923 231.0 
249.631378 393.0 
255.050339 209.0 
257.658478 123.0 
258.038269 500.0 
258.166901 234.0 
258.210266 94.0 
259.060242 10951.0 
260.06189 1853.0 
261.671234 169.0 
261.843384 96.0 
270.089233 156.0 
287.056183 4568.0 
287.352234 97.0 
288.045105 111.0 
289.054596 127.0 
297.125031 156.0 
300.166931 211.0 
304.380005 128.0 
305.06543 18896.0 
305.770935 115.0 
306.069733 3144.0 
322.092499 98.0 
322.124237 159.0 
341.066437 177.0 
410.134766 142.0 
453.100067 128.0 
END IONS

BEGIN IONS
TITLE=Scan Number: 102
PEPMASS=502.11899
CHARGE=1+
MSLEVEL=2
FILENAME=E3_GE3_01_2628.mzXML
INSTRUMENT=ion trap
SCANS=102
SMILES=O[C@H]1[C@H](O)[C@@H](COC(=O)C2=CC(O)=C(O)C(O)=C2)O[C@@H](OC(=O)C3=CC(O)=C(O)C(O)=C3)[C@@H]1O
INCHIKEY=LYGRISUQIZNHGM-IVABAYMNSA-N
81.032471 336.0 
85.026276 93.0 
85.066078 205.0 
87.422691 252.0 
96.723572 207.0 
97.028572 519.0 
103.749847 188.0 
108.034988 163.0 
109.026688 774.0 
125.021042 453.0 
126.055534 178.0 
127.038925 1426.0 
135.006577 187.0 
137.03595 184.0 
143.032349 929.0 
144.037537 185.0 
144.072952 293.0 
145.048584 608.0 
153.017899 31644.0 
154.022156 1795.0 
155.019058 306.0 
155.462158 190.0 
171.031677 1557.0 
189.091339 260.0 
197.015503 271.0 
221.026657 111.0 
222.053268 121.0 
223.225189 246.0 
237.050568 271.0 
239.059158 187.0 
243.034988 160.0 
255.050308 216.0 
265.092804 152.0 
297.059845 3801.0 
298.068542 819.0 
299.104889 102.0 
315.07074 3496.0 
316.071472 147.0 
331.119171 171.0 
347.117157 203.0 
354.020264 194.0 
425.299805 176.0 
504.191193 134.0 
END IONS

BEGIN IONS
TITLE=Scan Number: 103
PEPMASS=565.15503
CHARGE=1+
MSLEVEL=2
FILENAME=E3_GE3_01_2628.mzXML
INSTRUMENT=ion trap
SCANS=103
SMILES=OCC1OC(C(O)C(OC2OCC(O)C(O)C2O)C1O)C3=C4OC=C(C(=O)C4=C(O)C=C3O)C5=CC=C(O)C=C5
INCHIKEY=RUULGHDZDIUGRT-UHFFFAOYSA-N
78.218651 249.0 
79.02037 242.0 
79.263123 236.0 
82.918633 168.0 
85.025574 554.0 
87.044258 182.0 
88.171494 311.0 
89.037407 151.0 
89.056229 170.0 
93.038841 231.0 
96.919891 420.0 
98.700058 159.0 
100.927727 354.0 
101.024315 226.0 
103.039864 143.0 
104.04245 178.0 
106.251442 335.0 
107.04406 400.0 
108.523407 212.0 
109.029518 305.0 
110.051445 237.0 
115.038246 632.0 
119.046036 272.0 
121.030029 200.0 
124.046448 145.0 
124.736694 205.0 
126.451271 274.0 
127.038055 97.0 
128.98465 183.0 
129.016953 220.0 
129.073425 170.0 
129.523209 284.0 
131.071671 224.0 
133.046127 219.0 
133.98111 254.0 
134.038254 338.0 
135.043427 404.0 
137.529739 234.0 
141.198639 256.0 
145.031525 601.0 
145.167007 199.0 
145.840332 215.0 
147.122986 179.0 
149.013718 132.0 
149.059738 261.0 
149.879929 281.0 
150.029388 212.0 
154.075134 184.0 
154.35582 357.0 
157.060104 296.0 
158.829178 235.0 
158.9655 184.0 
160.05687 233.0 
161.646057 134.0 
162.034103 162.0 
163.026291 138.0 
165.020554 562.0 
167.03299 377.0 
168.754929 283.0 
171.882782 289.0 
175.580658 108.0 
177.018906 218.0 
178.064453 129.0 
179.031921 117.0 
181.076218 322.0 
182.953537 117.0 
183.022736 196.0 
187.06987 119.0 
187.89476 95.0 
189.018509 181.0 
190.004639 139.0 
190.2341 125.0 
191.669846 122.0 
193.066849 223.0 
193.900833 130.0 
195.027527 1020.0 
196.034668 143.0 
197.057114 160.0 
198.069336 246.0 
199.034485 165.0 
199.077911 130.0 
200.086868 407.0 
201.018875 199.0 
202.102936 143.0 
206.048492 145.0 
206.465576 205.0 
207.029236 262.0 
207.08226 172.0 
211.072876 151.0 
212.074081 159.0 
212.826843 288.0 
212.8703 238.0 
213.097626 111.0 
213.384888 287.0 
214.683319 303.0 
214.868469 278.0 
215.039139 478.0 
215.069427 409.0 
218.497787 110.0 
218.999893 176.0 
219.025574 444.0 
225.053101 1137.0 
226.051575 235.0 
227.070999 487.0 
229.055573 410.0 
229.107193 265.0 
230.047455 101.0 
231.016342 423.0 
233.051041 333.0 
234.952087 252.0 
237.05098 435.0 
237.090408 241.0 
238.05896 137.0 
239.072586 1647.0 
239.676636 258.0 
241.054672 455.0 
242.054642 123.0 
243.026291 626.0 
243.064438 1006.0 
244.064163 430.0 
244.365891 172.0 
245.050247 208.0 
245.252228 172.0 
249.037766 197.0 
249.471985 142.0 
251.065033 84.0 
251.54039 139.0 
253.050339 277.0 
253.096451 145.0 
254.961502 109.0 
255.03978 211.0 
256.03186 301.0 
256.072906 1611.0 
256.951477 186.0 
257.076721 336.0 
257.139832 101.0 
259.059204 152.0 
261.041504 1639.0 
265.079224 126.0 
266.05777 161.0 
267.065369 1524.0 
267.236603 208.0 
268.715424 177.0 
269.072632 223.0 
270.063538 542.0 
271.031036 587.0 
271.061432 2949.0 
272.057983 334.0 
273.062469 142.0 
273.84256 87.0 
275.044922 114.0 
279.071747 231.0 
280.787842 183.0 
281.079041 174.0 
281.934692 267.0 
282.692932 138.0 
283.061035 33103.0 
284.066376 16360.0 
285.070557 3705.0 
285.61438 92.0 
286.089081 372.0 
289.068207 364.0 
290.073212 260.0 
292.033264 126.0 
292.863861 125.0 
294.039856 234.0 
295.061462 11780.0 
295.207275 157.0 
296.064789 1733.0 
296.93689 189.0 
297.077423 4493.0 
298.081543 453.0 
298.201508 87.0 
298.386078 99.0 
298.452301 242.0 
299.084137 232.0 
299.989075 138.0 
301.075684 112.0 
301.332336 214.0 
301.584808 112.0 
305.080536 431.0 
307.061279 601.0 
308.065796 1295.0 
308.996582 221.0 
309.034882 460.0 
309.075409 3297.0 
310.083313 466.0 
311.055847 1918.0 
312.064606 966.0 
312.785828 174.0 
312.877716 187.0 
312.967468 662.0 
313.07193 121956.0 
313.184631 88.0 
313.231049 240.0 
313.88089 205.0 
314.000366 164.0 
314.074097 21255.0 
315.078552 1052.0 
315.995209 139.0 
316.115936 88.0 
316.161102 124.0 
316.313904 212.0 
316.601349 93.0 
316.797119 116.0 
317.523499 79.0 
319.059326 179.0 
321.05481 129.0 
321.080017 264.0 
322.080444 382.0 
323.053619 760.0 
323.092804 7504.0 
323.46402 115.0 
324.092163 1196.0 
325.074982 3550.0 
325.197845 88.0 
326.071686 450.0 
326.157532 93.0 
327.085968 713.0 
328.089569 104.0 
328.836212 112.0 
332.036011 139.0 
332.631622 91.0 
333.07962 522.0 
335.089722 747.0 
336.074127 216.0 
337.008881 482.0 
337.071625 19195.0 
337.229218 83.0 
337.911346 170.0 
338.073547 2583.0 
339.046631 178.0 
339.090668 771.0 
340.013855 116.0 
340.875183 138.0 
341.038818 166.0 
341.113068 220.0 
343.080872 5069.0 
344.078796 457.0 
348.390015 188.0 
349.067413 1294.0 
350.06958 396.0 
351.089081 6257.0 
351.946106 144.0 
352.088287 501.0 
352.338287 141.0 
352.708313 213.0 
353.068115 353.0 
354.082855 99.0 
355.084717 1074.0 
356.089478 485.0 
357.133392 126.0 
359.009155 132.0 
361.069031 551.0 
362.093353 164.0 
364.257202 235.0 
364.548553 165.0 
366.541016 129.0 
367.00473 243.0 
367.08194 9923.0 
368.037994 130.0 
368.084503 2767.0 
369.104767 355.0 
370.060486 175.0 
370.104675 249.0 
370.411499 95.0 
370.706879 99.0 
373.102448 88.0 
373.667053 90.0 
375.104218 182.0 
377.286774 306.0 
377.900543 133.0 
378.563141 117.0 
379.080261 8226.0 
380.079376 1154.0 
381.089294 266.0 
385.094879 120.0 
390.913422 174.0 
391.082977 136.0 
391.179321 156.0 
392.084259 167.0 
393.689453 124.0 
395.002594 193.0 
396.689819 199.0 
396.797852 260.0 
396.843842 285.0 
396.933502 150.0 
396.982239 274.0 
397.09317 21919.0 
397.365143 85.0 
397.690033 98.0 
397.87323 182.0 
398.09787 3176.0 
399.026093 149.0 
399.09198 618.0 
400.73111 140.0 
403.09726 220.0 
404.103638 127.0 
409.094055 158.0 
410.908051 82.0 
413.124939 222.0 
415.035004 467.0 
415.104034 35457.0 
415.975708 300.0 
416.107941 4986.0 
417.112183 628.0 
418.676117 163.0 
418.779236 255.0 
419.463074 123.0 
421.094055 80.0 
425.097137 218.0 
427.159424 252.0 
429.689575 86.0 
430.233917 224.0 
431.382172 117.0 
431.507385 193.0 
432.726868 91.0 
432.825409 110.0 
432.989685 643.0 
433.114685 83101.0 
433.246826 244.0 
433.287201 148.0 
433.59317 225.0 
433.663361 168.0 
434.058868 506.0 
434.118835 11901.0 
434.295349 94.0 
434.55957 186.0 
435.030884 289.0 
435.119812 322.0 
435.401978 159.0 
435.644012 105.0 
436.272736 112.0 
436.50592 153.0 
436.658722 189.0 
436.90744 192.0 
437.360596 128.0 
437.774628 116.0 
445.113861 263.0 
447.876465 105.0 
451.035431 216.0 
452.573547 123.0 
457.117096 120.0 
461.108185 151.0 
475.139954 123.0 
489.122345 214.0 
500.633484 271.0 
524.807434 178.0 
529.13855 338.0 
547.337341 155.0 
562.012634 126.0 
565.159912 36052.0 
565.626404 139.0 
565.796021 155.0 
566.039062 107.0 
566.083008 322.0 
566.162415 7843.0 
566.626282 101.0 
566.903076 125.0 
567.181335 379.0 
568.974243 122.0 
569.449097 89.0 
569.94397 150.0 
572.123291 85.0 
582.574463 193.0 
584.859863 112.0 
END IONS

BEGIN IONS
TITLE=Scan Number: 104
PEPMASS=353.10199
CHARGE=1+
MSLEVEL=2
FILENAME=A9_GA9_01_2608.mzXML
INSTRUMENT=ion trap
SCANS=104
SMILES=CC1(C)OC2=CC3=C(C(=O)C(=CO3)C4=CC=C(O)C=C4O)C(O)=C2C=C1
INCHIKEY=YKYNYMQDXOWMDT-UHFFFAOYSA-N
78.897217 196.0 
79.016594 163.0 
79.056305 212.0 
81.034004 229.0 
83.04821 460.0 
92.997124 441.0 
93.030647 164.0 
93.068726 361.0 
94.759232 246.0 
95.051292 700.0 
95.086548 175.0 
104.015808 144.0 
105.034515 1083.0 
105.06852 495.0 
106.041756 171.0 
106.867027 190.0 
107.049782 1041.0 
107.083572 215.0 
109.028976 131.0 
109.064949 1325.0 
110.093895 246.0 
115.057724 190.0 
116.060753 166.0 
117.069382 941.0 
118.04274 181.0 
118.078064 345.0 
119.054848 269.0 
119.54068 213.0 
121.02475 277.0 
121.044594 240.0 
121.127121 154.0 
121.764679 391.0 
123.042915 391.0 
123.271378 129.0 
123.736694 211.0 
125.057579 130.0 
128.061264 175.0 
129.070877 781.0 
130.044846 174.0 
130.072311 254.0 
131.05098 277.0 
132.057266 146.0 
133.000687 190.0 
133.065948 447.0 
134.037125 1187.0 
134.979309 311.0 
135.042328 1303.0 
136.442886 233.0 
137.025238 806.0 
139.002304 148.0 
140.002472 132.0 
140.249496 202.0 
141.020142 1279.0 
142.023941 133.0 
142.072876 161.0 
144.056366 215.0 
145.028519 245.0 
145.066818 1725.0 
146.065491 148.0 
147.047882 418.0 
147.420105 147.0 
148.009583 149.0 
148.050171 1076.0 
148.520874 159.0 
149.001282 230.0 
149.023163 1124.0 
149.060715 641.0 
150.029022 142.0 
150.060272 295.0 
151.040665 260.0 
152.063889 157.0 
152.992432 127.0 
153.014511 154.0 
153.053757 273.0 
155.022171 189.0 
155.059937 281.0 
155.084198 213.0 
157.063873 366.0 
159.042664 1201.0 
159.119781 119.0 
160.049774 119.0 
161.025009 2608.0 
161.058121 212.0 
162.030991 815.0 
162.069489 395.0 
163.041443 158.0 
163.073563 408.0 
164.038193 190.0 
164.295319 261.0 
165.018173 7591.0 
165.064377 151.0 
166.025742 786.0 
166.074814 473.0 
166.637878 180.0 
167.026566 826.0 
167.049835 275.0 
167.080917 251.0 
168.039291 239.0 
168.093613 144.0 
169.061829 152.0 
171.090607 121.0 
172.034927 154.0 
172.998566 158.0 
173.027313 553.0 
173.06134 1034.0 
174.008316 240.0 
175.040573 440.0 
175.118744 130.0 
175.54245 335.0 
176.013626 917.0 
176.047028 1892.0 
176.514679 125.0 
177.016785 3103.0 
177.055557 1154.0 
178.024567 606.0 
179.035675 1283.0 
179.093857 244.0 
180.907333 159.0 
181.06488 283.0 
181.103912 591.0 
182.073639 125.0 
183.030807 2758.0 
183.073502 186.0 
184.031601 467.0 
185.020538 352.0 
185.06456 504.0 
185.702423 248.0 
186.886383 125.0 
187.038147 443.0 
187.073303 256.0 
188.04425 152.0 
189.01889 1941.0 
189.057617 1143.0 
189.881805 289.0 
190.026306 2388.0 
190.079041 543.0 
191.033798 903.0 
191.07077 790.0 
191.122482 111.0 
192.042526 197.0 
192.077759 501.0 
192.507401 200.0 
193.396149 111.0 
194.028656 137.0 
195.030167 206.0 
195.067017 634.0 
195.287979 164.0 
196.049744 118.0 
197.061981 1041.0 
199.042007 155.0 
199.104813 127.0 
200.044708 609.0 
200.079056 158.0 
200.114639 210.0 
201.053589 1445.0 
202.020538 385.0 
202.056503 475.0 
203.005219 141.0 
203.034744 1768.0 
204.042603 3166.0 
205.049576 507.0 
206.074692 152.0 
208.037292 423.0 
209.099823 465.0 
210.061996 190.0 
211.039383 273.0 
211.075027 239.0 
212.050751 252.0 
212.081451 223.0 
213.053131 464.0 
213.098312 104.0 
214.041519 1188.0 
214.998917 162.0 
215.034012 655.0 
215.078842 218.0 
217.052475 1428.0 
218.042328 287.0 
219.005264 160.0 
219.066406 9138.0 
219.250412 153.0 
220.068008 619.0 
221.061783 575.0 
222.070206 378.0 
222.524658 263.0 
223.045898 331.0 
223.551834 173.0 
224.083496 155.0 
225.056229 409.0 
227.069519 287.0 
228.035294 176.0 
229.052292 3218.0 
230.064178 270.0 
230.407806 161.0 
230.899521 239.0 
231.06926 140.0 
233.051498 190.0 
233.853485 100.0 
234.060577 143.0 
235.040298 189.0 
235.963242 194.0 
236.072357 496.0 
237.055649 143.0 
237.088913 1084.0 
237.532684 225.0 
238.102859 178.0 
239.050522 159.0 
240.079849 430.0 
241.049454 1162.0 
241.080261 251.0 
242.540512 269.0 
243.061111 118.0 
244.032837 261.0 
244.085648 315.0 
244.550354 186.0 
245.044708 222.0 
246.968262 205.0 
247.070999 150.0 
248.424713 286.0 
249.055939 144.0 
251.06897 250.0 
253.051773 1611.0 
253.08609 446.0 
253.551041 216.0 
254.053757 385.0 
254.281357 235.0 
255.06842 1356.0 
255.101852 1946.0 
257.010864 172.0 
257.047913 432.0 
257.082642 161.0 
257.934235 84.0 
258.04776 104.0 
259.029938 162.0 
260.040833 172.0 
261.091156 410.0 
262.100739 299.0 
263.037384 142.0 
263.071381 142.0 
263.109406 192.0 
264.074371 479.0 
265.055664 808.0 
265.084778 2337.0 
266.063293 107.0 
267.064606 1442.0 
267.914154 202.0 
268.071777 1008.0 
269.050171 517.0 
269.12738 285.0 
270.119843 371.0 
271.022339 129.0 
271.060791 751.0 
271.099274 588.0 
272.030609 199.0 
272.06839 232.0 
274.540802 247.0 
275.273315 290.0 
277.051422 214.0 
278.056366 272.0 
279.065063 650.0 
279.102631 1001.0 
280.110504 231.0 
281.014832 612.0 
281.044098 2891.0 
282.048035 397.0 
282.091095 146.0 
283.058289 745.0 
283.099152 6160.0 
283.470459 244.0 
284.062439 415.0 
284.100189 988.0 
285.109436 116.0 
287.05896 1586.0 
288.056305 150.0 
289.044128 244.0 
289.0867 135.0 
290.098236 152.0 
291.051849 156.0 
292.042877 110.0 
292.073914 1054.0 
293.046265 1097.0 
295.065094 740.0 
296.073242 968.0 
296.991547 144.0 
297.083221 158.0 
297.11264 1563.0 
297.66394 154.0 
298.112366 192.0 
298.985199 82.0 
299.013275 111.0 
299.054932 6246.0 
300.059052 1032.0 
301.033234 109.0 
301.153351 270.0 
302.055176 189.0 
302.098694 132.0 
303.070801 151.0 
305.033569 132.0 
306.051941 927.0 
307.014313 239.0 
307.058197 105.0 
307.100433 953.0 
308.1026 232.0 
309.068268 243.0 
310.0896 116.0 
311.056641 4192.0 
311.094208 1349.0 
312.080414 508.0 
313.070648 549.0 
315.111694 154.0 
317.00882 227.0 
317.082092 824.0 
318.087646 361.0 
319.056915 275.0 
320.002563 159.0 
320.064178 1328.0 
321.079163 603.0 
322.078979 708.0 
323.014893 114.0 
323.068085 531.0 
324.061096 233.0 
325.07254 1288.0 
325.107697 1282.0 
326.071014 149.0 
326.110931 154.0 
328.221069 231.0 
335.091309 6575.0 
335.363129 339.0 
335.513092 101.0 
336.092682 967.0 
337.076294 1509.0 
338.080475 1235.0 
338.327637 285.0 
342.050049 245.0 
351.640991 151.0 
352.064453 246.0 
352.367828 133.0 
352.49115 99.0 
352.709503 319.0 
352.780701 115.0 
353.022705 503.0 
353.102966 120313.0 
353.344086 115.0 
353.874298 121.0 
354.106537 14286.0 
354.309296 297.0 
354.394196 194.0 
356.223541 135.0 
356.465881 180.0 
356.544983 96.0 
362.049377 180.0 
391.029327 120.0 
392.054108 345.0 
409.057281 731.0 
410.050842 1191.0 
426.066559 116.0 
427.01947 181.0 
427.075195 118.0 
428.460052 90.0 
429.072723 148.0 
430.674347 139.0 
441.058746 203.0 
487.061096 224.0 
488.082062 138.0 
1883.909912 168.0 
END IONS

BEGIN IONS
TITLE=Scan Number: 110
PEPMASS=207.065
CHARGE=1+
MSLEVEL=2
FILENAME=E12_GE12_01_2717.mzXML
INSTRUMENT=ion trap
SCANS=110
SMILES=COC1=C(OC)C=C2C=CC(=O)OC2=C1
INCHIKEY=GUAFOGOEJLSQBT-UHFFFAOYSA-N
77.038094 449.0 
78.032471 169.0 
78.046799 241.0 
79.053581 403.0 
82.877708 179.0 
83.839676 99.0 
89.038933 1602.0 
90.024796 410.0 
90.045685 1081.0 
91.054649 1543.0 
92.058823 262.0 
95.050308 445.0 
100.997993 212.0 
102.046097 1099.0 
105.046883 1303.0 
105.933876 213.0 
106.043777 545.0 
106.804375 224.0 
107.021736 282.0 
107.049477 6940.0 
107.854996 100.0 
107.880402 206.0 
108.057487 1140.0 
108.083267 735.0 
109.06424 207.0 
110.037262 145.0 
117.031403 805.0 
118.039963 1105.0 
119.048904 1262.0 
119.514557 209.0 
120.050529 158.0 
121.030731 477.0 
133.025787 889.0 
134.03624 1061.0 
135.041275 1445.0 
136.052155 1535.0 
137.944077 188.0 
139.038116 172.0 
140.038513 103.0 
145.034424 1194.0 
145.864502 177.0 
146.037155 2473.0 
147.041382 648.0 
148.051727 2052.0 
149.061279 206.0 
150.716965 224.0 
151.036621 429.0 
151.075592 7958.0 
161.019928 445.0 
162.029755 1484.0 
162.814621 131.0 
163.038925 5322.0 
163.071075 176.0 
163.408218 83.0 
164.044815 318.0 
174.007202 150.0 
174.031525 448.0 
175.037125 206.0 
177.019073 557.0 
178.027878 846.0 
179.073395 1975.0 
180.264618 64.0 
189.018799 311.0 
191.034439 8604.0 
192.041199 2895.0 
193.044724 135.0 
204.72403 194.0 
207.065613 17277.0 
208.066818 1099.0 
209.499634 161.0 
209.788895 120.0 
210.27037 81.0 
219.060425 220.0 
1893.269165 170.0 
2001.351074 318.0 
END IONS

BEGIN IONS
TITLE=Scan Number: 113
PEPMASS=343.138
CHARGE=1+
MSLEVEL=2
FILENAME=E9_GE9_01_2817.mzXML
INSTRUMENT=ion trap
SCANS=113
SMILES=CC(OC(C)=O)C(OC(C)=O)\C=C\C(O)C(O)C1CC=CC(=O)O1
INCHIKEY=RAZHULSADOGMPF-BQYQJAHWSA-N
77.750931 213.0 
79.056145 1784.0 
81.03344 629.0 
81.070091 688.0 
83.0494 816.0 
83.728271 204.0 
85.026978 239.0 
91.056465 946.0 
93.046562 185.0 
93.071373 290.0 
95.005379 284.0 
95.050026 2535.0 
95.727196 118.0 
96.05397 152.0 
97.030281 670.0 
97.0662 2900.0 
98.033928 339.0 
99.044594 342.0 
105.043869 279.0 
107.047562 465.0 
107.071205 169.0 
108.051041 171.0 
108.088196 179.0 
109.028473 1563.0 
109.064445 1740.0 
111.042961 334.0 
113.059288 178.0 
115.054817 727.0 
116.05442 224.0 
117.039482 157.0 
117.070152 1071.0 
118.075325 522.0 
119.043518 190.0 
119.985168 268.0 
121.035233 122.0 
122.063637 294.0 
123.043472 360.0 
127.040367 848.0 
129.069611 255.0 
130.077271 201.0 
131.071548 245.0 
131.086853 514.0 
133.063354 354.0 
135.080902 578.0 
137.185776 105.0 
141.070557 323.0 
143.218262 192.0 
144.061646 612.0 
145.065979 627.0 
146.070816 212.0 
155.058121 188.0 
159.080933 730.0 
163.078568 1284.0 
167.008163 200.0 
169.073273 188.0 
173.096664 171.0 
177.084488 809.0 
181.091064 140.0 
187.072556 648.0 
188.079742 175.0 
189.054031 123.0 
204.96579 182.0 
205.0858 2547.0 
206.085007 106.0 
223.061508 119.0 
223.095337 797.0 
225.85434 178.0 
241.102783 304.0 
265.115295 216.0 
273.035034 193.0 
283.118378 451.0 
1525.183716 252.0 
END IONS

BEGIN IONS
TITLE=Scan Number: 114
PEPMASS=360.16501
CHARGE=1+
MSLEVEL=2
FILENAME=E9_GE9_01_2817.mzXML
INSTRUMENT=ion trap
SCANS=114
SMILES=CC(OC(C)=O)C(OC(C)=O)\C=C\C(O)C(O)C1CC=CC(=O)O1
INCHIKEY=RAZHULSADOGMPF-BQYQJAHWSA-N
71.579605 173.0 
76.869156 262.0 
79.009056 220.0 
79.054626 1610.0 
81.034142 1488.0 
81.069084 772.0 
83.029289 201.0 
83.049965 1434.0 
83.50309 226.0 
84.051659 527.0 
85.030121 265.0 
89.540108 102.0 
91.055824 1224.0 
92.060669 328.0 
93.072929 230.0 
95.011635 547.0 
95.049957 14953.0 
95.107918 236.0 
96.024529 331.0 
96.053108 999.0 
97.029007 3749.0 
97.065857 4925.0 
98.070351 535.0 
99.04525 112.0 
100.049156 212.0 
103.057228 432.0 
104.056129 360.0 
105.0457 470.0 
105.071259 2025.0 
105.133575 94.0 
105.740395 313.0 
107.049706 660.0 
107.085739 731.0 
108.016006 228.0 
108.089577 145.0 
109.029686 3577.0 
109.064491 5908.0 
109.262527 107.0 
110.033127 267.0 
110.071892 145.0 
110.821907 322.0 
111.043037 1714.0 
111.771248 214.0 
113.024437 431.0 
113.063538 255.0 
115.052536 1067.0 
116.062279 1582.0 
116.840584 175.0 
116.996727 236.0 
117.048485 239.0 
117.070473 4702.0 
117.989067 199.0 
118.07695 701.0 
118.837273 148.0 
119.050255 1092.0 
119.089729 319.0 
121.028206 381.0 
121.062988 188.0 
123.047394 549.0 
123.080956 182.0 
125.023911 525.0 
126.821007 131.0 
127.039986 1709.0 
128.061493 1177.0 
128.118851 242.0 
129.054718 95.0 
130.988647 157.0 
131.08667 3118.0 
131.165741 71.0 
132.089188 535.0 
132.829468 361.0 
133.065384 2239.0 
133.105438 303.0 
134.064117 121.0 
135.043228 754.0 
135.080231 2160.0 
135.457016 88.0 
137.059219 938.0 
138.021713 145.0 
141.019806 99.0 
141.073792 636.0 
143.048462 107.0 
143.087524 1205.0 
144.057098 736.0 
145.023621 189.0 
145.066086 5649.0 
145.179993 107.0 
146.068451 125.0 
147.056427 249.0 
149.060501 594.0 
149.095047 1146.0 
150.067352 117.0 
151.646164 230.0 
153.475784 174.0 
155.062256 2607.0 
156.996445 93.0 
157.052414 591.0 
159.026489 114.0 
159.081543 6087.0 
160.054352 257.0 
160.083313 158.0 
161.061172 584.0 
161.097702 312.0 
162.066666 134.0 
162.098175 230.0 
162.757538 130.0 
163.050629 190.0 
163.076874 5900.0 
164.081345 817.0 
165.056519 328.0 
167.059875 76.0 
167.86937 84.0 
169.063354 720.0 
170.076767 171.0 
172.374115 238.0 
175.077377 220.0 
177.092484 2578.0 
178.082367 157.0 
178.614029 156.0 
178.883759 304.0 
179.070801 258.0 
181.086975 2838.0 
186.132767 222.0 
187.077347 2844.0 
188.046936 111.0 
197.086685 83.0 
203.146149 136.0 
204.079651 258.0 
205.050446 300.0 
205.087631 12634.0 
205.453613 107.0 
205.740692 103.0 
206.090042 977.0 
221.148941 178.0 
223.038116 123.0 
223.097488 6298.0 
224.108292 281.0 
240.104309 99.0 
241.108673 1419.0 
242.110474 304.0 
259.113098 176.0 
261.049622 149.0 
265.107208 225.0 
283.118805 3010.0 
284.123779 159.0 
325.13266 235.0 
1323.495117 212.0 
1419.866943 129.0 
1822.655396 235.0 
END IONS

BEGIN IONS
TITLE=Scan Number: 116
PEPMASS=377.086
CHARGE=1+
MSLEVEL=2
FILENAME=E9_GE9_01_2817.mzXML
INSTRUMENT=ion trap
SCANS=116
SMILES=COCC1=C(O)C(C(O)=O)=C(C)C2=C1OC(=O)C3=C(C)C=C(O)C(O)=C3O2
INCHIKEY=FXGOBECSEIQDAS-UHFFFAOYSA-N
103.049934 182.0 
105.046249 122.0 
105.070145 2218.0 
115.068619 304.0 
133.066772 590.0 
136.083298 99.0 
137.045212 484.0 
143.047333 229.0 
151.055588 121.0 
153.071274 187.0 
155.061249 156.0 
161.024414 168.0 
161.060867 3225.0 
169.063553 151.0 
171.047989 215.0 
179.033783 162.0 
187.740921 247.0 
188.56218 124.0 
189.003922 120.0 
189.053848 1495.0 
190.05809 865.0 
195.024002 251.0 
199.079651 209.0 
216.991562 189.0 
217.052078 2712.0 
218.040329 253.0 
218.966873 210.0 
224.902481 155.0 
231.05629 160.0 
235.13121 167.0 
245.046646 2178.0 
246.047302 547.0 
247.044739 228.0 
260.175751 183.0 
272.959229 187.0 
273.039429 33294.0 
273.970215 357.0 
274.04303 3837.0 
274.440918 166.0 
275.043762 187.0 
277.035522 137.0 
290.804565 111.0 
290.993896 232.0 
291.052399 388.0 
292.055237 324.0 
294.750854 99.0 
297.897705 143.0 
298.318756 199.0 
299.045349 121.0 
327.050049 13536.0 
328.058533 1556.0 
345.038696 172.0 
346.06073 192.0 
391.152679 89.0 
END IONS

BEGIN IONS
TITLE=Scan Number: 117
PEPMASS=394.11301
CHARGE=1+
MSLEVEL=2
FILENAME=E9_GE9_01_2817.mzXML
INSTRUMENT=ion trap
SCANS=117
SMILES=COCC1=C(O)C(C(O)=O)=C(C)C2=C1OC(=O)C3=C(C)C=C(O)C(O)=C3O2
INCHIKEY=FXGOBECSEIQDAS-UHFFFAOYSA-N
105.068367 815.0 
105.799988 176.0 
106.074165 518.0 
107.046661 145.0 
109.332085 271.0 
111.045395 389.0 
111.335777 255.0 
115.661926 241.0 
116.062691 235.0 
127.036903 147.0 
129.069107 211.0 
133.066422 1713.0 
141.070633 131.0 
143.053238 370.0 
143.316177 141.0 
148.04454 175.0 
155.055573 191.0 
155.257111 114.0 
157.09581 209.0 
161.018707 267.0 
161.059799 5075.0 
161.133621 196.0 
162.06752 310.0 
168.272751 238.0 
171.045135 586.0 
173.068909 205.0 
177.057312 154.0 
181.643311 162.0 
187.045761 119.0 
187.203125 232.0 
187.266983 110.0 
189.054276 2597.0 
192.544449 145.0 
193.050522 171.0 
197.060043 151.0 
203.039505 284.0 
205.047897 709.0 
211.149078 105.0 
216.048172 161.0 
216.082489 126.0 
216.920486 134.0 
216.999481 301.0 
217.05011 6881.0 
217.447098 100.0 
218.052444 443.0 
219.052933 130.0 
227.318649 296.0 
228.044189 196.0 
231.060394 371.0 
232.069199 136.0 
239.456696 212.0 
242.020874 199.0 
243.062668 673.0 
244.067581 107.0 
244.987869 530.0 
245.045731 9052.0 
246.064163 400.0 
247.058136 378.0 
249.626083 260.0 
255.030502 153.0 
256.952667 261.0 
258.994324 102.0 
265.50412 331.0 
271.060516 122.0 
271.845001 143.0 
271.997894 116.0 
272.101837 110.0 
272.947845 653.0 
273.039703 112282.0 
273.112335 89.0 
273.193268 174.0 
273.279358 93.0 
273.43988 111.0 
273.962341 92.0 
274.002411 817.0 
274.045105 12265.0 
274.374756 108.0 
275.043152 325.0 
275.346985 117.0 
275.717499 112.0 
275.771637 146.0 
275.889862 217.0 
276.139465 164.0 
285.126526 329.0 
290.113434 190.0 
290.418823 107.0 
291.049744 3697.0 
292.006561 101.0 
292.050415 477.0 
301.075836 224.0 
307.185211 138.0 
309.977875 218.0 
316.324554 231.0 
319.081757 206.0 
324.605591 99.0 
325.071289 135.0 
325.71521 139.0 
326.049164 100.0 
326.442169 106.0 
326.976196 331.0 
327.050751 56662.0 
328.053436 6421.0 
329.055267 417.0 
330.168823 108.0 
331.300934 182.0 
341.566528 202.0 
343.144958 180.0 
345.061127 7281.0 
346.069244 408.0 
END IONS

BEGIN IONS
TITLE=Scan Number: 126
PEPMASS=320.134
CHARGE=1+
MSLEVEL=2
FILENAME=C2_GC2_01_2797.mzXML
INSTRUMENT=ion trap
SCANS=126
SMILES=OC(=O)C(CCCCCCOC(=O)C(O)=O)C(=C)C(O)=O
INCHIKEY=CLFOWTUGPBWLGH-UHFFFAOYSA-N
78.049683 101.0 
79.054939 758.0 
81.072037 225.0 
84.963791 184.0 
91.055008 1559.0 
92.058228 152.0 
93.070969 1072.0 
95.083855 371.0 
98.93264 177.0 
102.423073 173.0 
102.975822 258.0 
105.042213 359.0 
105.070435 1190.0 
107.050743 380.0 
107.087067 590.0 
109.030258 134.0 
109.047775 152.0 
109.065529 407.0 
113.020859 135.0 
117.072739 182.0 
119.058952 167.0 
120.315269 115.0 
121.061729 214.0 
121.102394 1168.0 
122.068977 110.0 
123.118736 222.0 
129.067398 213.0 
131.086746 1017.0 
133.069107 235.0 
135.087021 294.0 
149.035599 233.0 
149.096344 4867.0 
150.108673 206.0 
151.118988 154.0 
153.016327 139.0 
153.049026 283.0 
156.404007 340.0 
159.080872 391.0 
161.049988 138.0 
166.975082 271.0 
167.10817 1284.0 
168.108688 255.0 
177.069855 252.0 
177.091766 1955.0 
178.098083 135.0 
180.988678 218.0 
182.939606 110.0 
195.102737 2189.0 
240.996338 115.0 
285.095978 231.0 
320.090485 210.0 
1193.038452 126.0 
END IONS

BEGIN IONS
TITLE=Scan Number: 127
PEPMASS=329.138
CHARGE=1+
MSLEVEL=2
FILENAME=C2_GC2_01_2797.mzXML
INSTRUMENT=ion trap
SCANS=127
SMILES=CC(C)=CC(=O)OC(C)(C)C1CC2=CC3=C(OC(=O)C=C3)C=C2O1
INCHIKEY=PQCLZBCFLJVBGA-UHFFFAOYSA-N
80.501335 210.0 
83.050308 2628.0 
89.59005 235.0 
91.053902 1070.0 
93.130829 127.0 
98.052498 293.0 
103.054497 508.0 
105.070732 1047.0 
106.399696 144.0 
115.055336 1643.0 
115.395485 188.0 
116.063759 112.0 
117.07058 872.0 
118.074814 82.0 
119.051384 556.0 
121.028145 106.0 
123.260818 258.0 
128.063538 726.0 
129.070526 1801.0 
130.075867 856.0 
131.050919 900.0 
131.086166 1214.0 
132.047287 146.0 
133.028534 376.0 
133.070724 238.0 
133.105606 184.0 
140.062851 220.0 
141.069153 783.0 
141.990402 176.0 
142.076889 484.0 
142.92717 157.0 
143.050369 331.0 
143.083069 538.0 
143.134872 92.0 
143.153259 289.0 
143.454254 101.0 
143.745621 264.0 
144.056686 1262.0 
144.092606 169.0 
145.066513 1913.0 
145.100922 915.0 
146.03772 167.0 
147.044281 1153.0 
148.032867 189.0 
148.055588 357.0 
151.038254 230.0 
152.060837 829.0 
153.070923 1870.0 
154.081451 540.0 
155.05928 588.0 
155.087097 3465.0 
156.06044 259.0 
156.091537 542.0 
157.066315 1515.0 
158.071457 1859.0 
159.046814 346.0 
159.079224 509.0 
161.057083 209.0 
164.859818 142.0 
165.069229 318.0 
165.549942 216.0 
166.078369 547.0 
167.082993 583.0 
168.060303 1269.0 
169.064468 616.0 
170.073593 962.0 
171.017181 178.0 
171.042435 984.0 
171.079498 512.0 
172.054703 593.0 
173.065582 1012.0 
173.096863 874.0 
174.062027 450.0 
174.102859 162.0 
175.041031 4108.0 
176.049454 3739.0 
177.049622 505.0 
181.063019 221.0 
182.068054 192.0 
183.028229 131.0 
183.082397 1170.0 
184.086227 407.0 
185.059982 2867.0 
185.095749 384.0 
186.066132 2426.0 
186.147263 180.0 
187.039322 271.0 
187.071503 1586.0 
188.0383 155.0 
189.054504 184.0 
195.057053 239.0 
197.058746 1460.0 
199.039993 2454.0 
199.078888 987.0 
200.050705 1000.0 
201.057037 943.0 
201.08548 1297.0 
201.12178 243.0 
202.095062 499.0 
202.370193 341.0 
206.047104 151.0 
211.0755 4546.0 
212.07991 731.0 
213.018265 319.0 
213.055847 12790.0 
213.732346 126.0 
214.062973 11616.0 
214.565765 303.0 
215.067429 946.0 
215.629684 103.0 
216.277313 122.0 
221.167908 208.0 
225.665863 191.0 
227.022995 168.0 
227.070114 1168.0 
228.087738 469.0 
228.37265 100.0 
228.61731 247.0 
228.903076 356.0 
229.026215 618.0 
229.087158 68862.0 
229.36496 214.0 
229.526154 92.0 
229.977417 124.0 
230.025757 129.0 
230.090195 6255.0 
230.451157 125.0 
231.91716 187.0 
239.246048 116.0 
241.495163 88.0 
247.096878 15678.0 
248.099945 1632.0 
249.691711 160.0 
268.067017 167.0 
313.074738 392.0 
329.140259 15591.0 
330.145508 1220.0 
END IONS

BEGIN IONS
TITLE=Scan Number: 131
PEPMASS=356.185
CHARGE=1+
MSLEVEL=2
FILENAME=A11_GA11_01_2691.mzXML
INSTRUMENT=ion trap
SCANS=131
SMILES=COC1=CC=C2CC3N(CCC4=CC(OC)=C(OC)C=C34)CC2=C1OC
INCHIKEY=AEQDJSLRWYMAQI-UHFFFAOYSA-N
70.121033 208.0 
70.36203 141.0 
70.380409 113.0 
70.506226 132.0 
70.727371 237.0 
70.841759 79.0 
70.911064 109.0 
71.119659 89.0 
71.838936 54.0 
72.471733 330.0 
72.526794 266.0 
72.839653 210.0 
73.018234 97.0 
75.043785 162.0 
75.211502 171.0 
75.738258 162.0 
76.043167 208.0 
76.134239 205.0 
76.374229 103.0 
76.561668 84.0 
77.038155 266.0 
77.997467 347.0 
78.044334 453.0 
78.06736 245.0 
78.526985 233.0 
78.565353 69.0 
78.803246 306.0 
78.888184 75.0 
79.053238 6692.0 
79.698219 112.0 
79.784737 234.0 
80.041573 175.0 
80.059998 254.0 
80.202133 141.0 
81.070129 260.0 
81.630959 134.0 
81.722336 301.0 
82.016563 220.0 
82.366821 354.0 
83.633209 334.0 
85.136559 141.0 
85.959167 169.0 
85.992577 52.0 
86.325401 404.0 
86.383469 433.0 
86.436531 195.0 
86.477119 161.0 
86.777901 123.0 
87.018349 72.0 
87.525093 302.0 
87.657722 339.0 
87.760422 130.0 
88.42659 113.0 
88.533653 165.0 
88.968315 295.0 
89.617973 192.0 
89.739929 316.0 
89.801376 280.0 
90.047112 1056.0 
90.21653 194.0 
90.282265 118.0 
90.602798 187.0 
90.789284 146.0 
91.033936 352.0 
91.054337 13550.0 
91.090897 26.0 
91.413246 128.0 
91.674271 224.0 
91.733688 129.0 
92.057983 1789.0 
92.572289 114.0 
92.958313 247.0 
92.979584 173.0 
93.032982 149.0 
93.069931 758.0 
93.281227 37.0 
93.547714 62.0 
93.960587 186.0 
94.031998 132.0 
94.067924 571.0 
94.079834 603.0 
94.435539 167.0 
94.504105 295.0 
95.030533 126.0 
95.048721 1083.0 
95.08567 102.0 
95.248123 155.0 
96.051857 123.0 
96.716049 295.0 
97.052513 163.0 
97.143944 102.0 
97.713318 138.0 
98.415596 139.0 
98.61013 128.0 
99.043594 197.0 
99.223877 225.0 
101.288559 159.0 
101.699448 314.0 
101.833755 49.0 
102.042397 49.0 
102.955032 79.0 
103.054489 8194.0 
103.207069 289.0 
103.244865 252.0 
103.398384 234.0 
104.061142 2614.0 
104.120872 134.0 
104.139435 273.0 
104.167557 266.0 
104.22863 133.0 
104.294914 145.0 
104.422058 46.0 
104.553024 223.0 
104.948631 256.0 
105.045364 4123.0 
105.069901 16961.0 
105.111092 48.0 
105.216537 223.0 
105.785957 57.0 
106.034981 502.0 
106.072121 1228.0 
106.560837 321.0 
107.04892 9037.0 
107.085709 545.0 
107.264709 71.0 
107.945435 249.0 
108.036621 152.0 
108.056381 1164.0 
108.091393 302.0 
108.334213 181.0 
108.72686 274.0 
109.021049 348.0 
109.065048 1542.0 
109.109955 55.0 
109.31633 163.0 
109.740868 166.0 
110.036819 328.0 
110.064713 179.0 
110.134758 97.0 
110.415398 59.0 
110.809143 162.0 
111.065598 178.0 
111.079597 159.0 
111.378319 215.0 
111.882492 32.0 
112.322739 197.0 
112.447937 219.0 
112.55854 245.0 
112.575638 266.0 
112.967606 136.0 
113.16256 373.0 
113.524437 78.0 
113.780945 111.0 
113.957298 127.0 
114.047211 156.0 
114.593254 140.0 
114.794998 50.0 
114.948891 68.0 
115.037102 332.0 
115.053764 2442.0 
115.261703 202.0 
115.275101 229.0 
115.516479 233.0 
115.665924 192.0 
115.720703 222.0 
116.068169 537.0 
116.188484 71.0 
116.792908 283.0 
117.037979 230.0 
117.069153 1775.0 
117.21209 122.0 
117.454163 380.0 
117.687851 198.0 
117.828918 183.0 
117.944862 387.0 
118.041725 6908.0 
118.063583 2041.0 
118.123222 19.0 
118.257652 400.0 
118.287903 239.0 
118.531815 237.0 
118.867752 210.0 
118.898506 355.0 
119.049812 12445.0 
119.202408 134.0 
119.50116 144.0 
119.588661 142.0 
119.751785 206.0 
120.056923 7682.0 
120.1091 38.0 
120.526031 259.0 
121.026787 122.0 
121.065346 13459.0 
121.120552 274.0 
121.484291 223.0 
121.942596 86.0 
121.995682 182.0 
122.038521 922.0 
122.072823 4274.0 
123.044548 949.0 
123.079453 1453.0 
123.56134 170.0 
123.744072 244.0 
123.760086 161.0 
123.86869 96.0 
124.053566 1855.0 
124.093315 455.0 
124.439049 62.0 
124.528244 88.0 
125.060432 477.0 
125.127365 197.0 
125.521759 318.0 
125.732582 168.0 
125.80986 111.0 
125.983788 236.0 
126.175034 267.0 
126.394722 266.0 
126.742462 251.0 
126.895767 246.0 
126.970268 318.0 
127.241722 37.0 
127.876755 18.0 
127.992126 226.0 
128.057358 271.0 
128.180725 276.0 
128.309906 318.0 
128.444351 113.0 
128.607437 32.0 
129.069107 361.0 
129.803101 159.0 
129.82756 475.0 
130.028183 190.0 
130.063614 4438.0 
130.136139 31.0 
130.357742 147.0 
130.387558 101.0 
130.993561 220.0 
131.013763 168.0 
131.05043 7245.0 
131.073166 58280.0 
131.322449 33.0 
131.563141 194.0 
131.748505 70.0 
131.872452 42.0 
132.034393 195.0 
132.05748 2748.0 
132.07637 4024.0 
132.123749 252.0 
132.574127 143.0 
132.718719 155.0 
132.873001 146.0 
133.000183 52.0 
133.064819 18125.0 
133.227249 199.0 
133.259689 199.0 
133.80864 30.0 
134.071548 22569.0 
134.15451 189.0 
134.615387 314.0 
134.703735 151.0 
134.794113 251.0 
134.901337 57.0 
134.97702 26.0 
135.010895 72.0 
135.044403 21348.0 
135.079575 11160.0 
135.109039 93.0 
135.123871 99.0 
135.143005 19.0 
135.257675 105.0 
135.318954 148.0 
135.442108 91.0 
135.466949 297.0 
135.600082 362.0 
136.021027 350.0 
136.051559 13172.0 
136.080399 694.0 
136.111771 139.0 
136.582108 31.0 
136.60434 139.0 
136.916718 300.0 
137.038239 192.0 
137.059052 2873.0 
137.096741 628.0 
137.300613 185.0 
137.538162 96.0 
138.007019 26.0 
138.067245 1682.0 
138.104202 242.0 
138.194183 121.0 
138.367661 248.0 
138.636093 304.0 
139.075211 1078.0 
140.142273 174.0 
141.069138 335.0 
141.935135 38.0 
142.040039 253.0 
142.296646 232.0 
142.743408 208.0 
143.051758 1358.0 
144.05632 1648.0 
144.082489 781.0 
144.809341 54.0 
144.922012 71.0 
145.069183 2576.0 
145.101242 276.0 
145.226089 30.0 
145.282104 77.0 
145.311554 57.0 
145.376862 202.0 
145.551056 213.0 
145.78537 209.0 
145.994186 165.0 
146.060593 7061.0 
146.161835 312.0 
146.468674 201.0 
146.539764 18.0 
146.64296 95.0 
146.777161 267.0 
146.896988 152.0 
146.984116 297.0 
147.007355 81.0 
147.067993 25989.0 
147.137131 164.0 
147.175903 227.0 
147.281631 291.0 
147.314362 30.0 
147.358109 181.0 
147.420822 233.0 
147.452148 210.0 
147.63472 73.0 
147.67244 67.0 
147.784683 221.0 
147.878799 60.0 
147.923737 66.0 
148.005737 328.0 
148.075577 145645.0 
148.126328 92.0 
148.233459 207.0 
148.275848 149.0 
148.418289 26.0 
148.464478 33.0 
148.503311 106.0 
148.56691 78.0 
148.614029 45.0 
148.726822 42.0 
148.875229 85.0 
149.003433 101.0 
149.060608 13364.0 
149.078613 13012.0 
149.159698 289.0 
149.278091 191.0 
149.329559 86.0 
149.399536 187.0 
149.957779 106.0 
150.011719 160.0 
150.068039 98548.0 
150.130035 105.0 
150.183716 287.0 
150.255081 184.0 
150.327972 173.0 
150.37265 78.0 
150.44368 34.0 
150.505859 185.0 
150.556213 244.0 
150.714508 112.0 
150.770874 154.0 
150.916351 246.0 
151.023407 753.0 
151.075089 52576.0 
151.151428 127.0 
151.192566 29.0 
151.227661 172.0 
151.265106 84.0 
151.291153 359.0 
151.324417 116.0 
151.363052 100.0 
151.449142 64.0 
151.605362 45.0 
151.647263 69.0 
151.972885 225.0 
152.014282 51.0 
152.07991 4186.0 
152.144882 254.0 
152.183853 149.0 
152.246216 147.0 
152.309433 31.0 
152.363083 115.0 
152.577179 250.0 
153.09111 361.0 
153.211639 78.0 
153.237122 156.0 
153.430801 219.0 
153.546982 218.0 
153.573288 99.0 
153.618011 209.0 
153.944794 56.0 
154.025833 68.0 
154.321915 176.0 
154.662369 251.0 
155.007462 107.0 
155.021042 112.0 
155.069641 228.0 
155.1931 76.0 
156.278442 324.0 
156.569016 35.0 
156.789627 176.0 
156.922729 32.0 
157.066437 1302.0 
157.115204 104.0 
157.403717 181.0 
158.070755 6133.0 
158.160461 370.0 
158.754044 144.0 
159.005905 87.0 
159.068283 53708.0 
159.104965 682.0 
159.201248 336.0 
159.299622 148.0 
159.858734 43.0 
159.998642 63.0 
160.052658 4842.0 
160.074936 21875.0 
160.160339 123.0 
160.382965 45.0 
160.537766 93.0 
160.776581 333.0 
161.015854 232.0 
161.057465 3004.0 
161.082367 9191.0 
161.152695 228.0 
161.206406 94.0 
161.331848 398.0 
161.413712 76.0 
161.562714 35.0 
161.674957 123.0 
161.920227 58.0 
161.942993 303.0 
162.055511 8926.0 
162.091049 2374.0 
162.120865 100.0 
162.177658 147.0 
162.352936 33.0 
162.39299 47.0 
162.456116 42.0 
162.623428 109.0 
162.842148 120.0 
163.009995 216.0 
163.063187 62720.0 
163.121643 74.0 
163.173599 406.0 
163.226013 492.0 
163.278122 30.0 
163.31839 108.0 
163.340851 94.0 
163.369141 72.0 
163.454773 109.0 
163.526215 121.0 
163.558578 43.0 
163.623871 126.0 
163.70726 34.0 
163.761581 88.0 
163.809402 65.0 
163.842545 55.0 
163.92569 103.0 
164.018402 372.0 
164.078857 10087.0 
164.105301 1337.0 
164.18985 28.0 
164.393784 196.0 
164.484268 18.0 
164.768799 241.0 
164.814117 197.0 
164.872879 460.0 
164.913208 293.0 
164.954269 236.0 
165.020111 242.0 
165.091141 157457.0 
165.166351 128.0 
165.193619 83.0 
165.2332 73.0 
165.310806 146.0 
165.336563 185.0 
165.383514 259.0 
165.434387 46.0 
165.532486 42.0 
165.709106 83.0 
165.76709 215.0 
165.823471 143.0 
165.846497 202.0 
165.862122 198.0 
165.981445 51.0 
166.094086 11456.0 
166.563675 120.0 
166.690689 124.0 
166.879089 129.0 
166.934097 82.0 
167.078033 27.0 
167.107162 218.0 
167.244797 98.0 
167.324829 186.0 
167.394653 198.0 
167.460876 108.0 
167.590912 69.0 
167.664871 193.0 
167.992569 53.0 
168.108429 30.0 
168.509842 63.0 
168.545883 238.0 
168.757462 21.0 
169.451691 303.0 
170.091293 303.0 
170.140823 147.0 
170.596848 248.0 
170.880356 53.0 
171.040863 143.0 
171.069458 266.0 
171.140457 270.0 
171.306702 246.0 
171.589096 164.0 
172.075867 991.0 
173.057083 262.0 
173.082413 1122.0 
173.235153 19.0 
173.311661 184.0 
173.393127 108.0 
173.522949 60.0 
173.760986 73.0 
173.818497 65.0 
174.056335 11685.0 
174.089432 1972.0 
174.165497 88.0 
174.380966 124.0 
174.675873 29.0 
174.708954 220.0 
174.821136 212.0 
175.06488 7881.0 
175.158081 64.0 
175.210663 268.0 
175.632797 180.0 
175.708221 206.0 
175.846268 102.0 
175.888306 113.0 
175.924408 198.0 
175.949875 60.0 
175.992142 576.0 
176.070862 253281.0 
176.16333 212.0 
176.203659 220.0 
176.268707 236.0 
176.369904 81.0 
176.446381 171.0 
176.493073 88.0 
176.541611 126.0 
176.80629 41.0 
176.839676 108.0 
176.888763 71.0 
176.927216 573.0 
176.960297 140.0 
177.078613 249143.0 
177.137192 111.0 
177.159775 104.0 
177.178497 66.0 
177.201172 200.0 
177.232208 27.0 
177.328476 523.0 
177.37059 128.0 
177.399277 251.0 
177.452316 264.0 
177.484726 191.0 
177.551544 30.0 
177.593689 294.0 
177.64624 130.0 
177.673737 31.0 
177.712265 168.0 
177.73674 219.0 
177.769363 93.0 
177.836731 95.0 
177.980774 139.0 
178.085876 127741.0 
178.151154 111.0 
178.192612 181.0 
178.233383 18.0 
178.293274 30.0 
178.327667 139.0 
178.3806 284.0 
178.404251 176.0 
178.439178 384.0 
178.48468 327.0 
178.530853 222.0 
178.562256 387.0 
178.596832 134.0 
178.662109 98.0 
178.753082 67.0 
178.901993 69.0 
178.996292 146.0 
179.020523 120.0 
179.090256 10830.0 
179.242966 179.0 
179.335876 158.0 
179.358032 202.0 
179.376953 125.0 
179.398743 79.0 
179.41655 115.0 
179.45462 141.0 
179.480423 160.0 
179.508514 184.0 
179.537476 55.0 
179.568909 86.0 
179.967651 28.0 
180.091614 1066.0 
180.189041 18.0 
180.248856 276.0 
180.339981 287.0 
180.36145 366.0 
180.412918 57.0 
180.429443 56.0 
180.469025 205.0 
180.495422 35.0 
180.533325 90.0 
180.59137 274.0 
180.638779 21.0 
180.685974 127.0 
180.96524 90.0 
181.010254 143.0 
181.099289 359.0 
181.177338 250.0 
181.263474 116.0 
181.715195 74.0 
181.741852 75.0 
181.855499 171.0 
181.931412 240.0 
182.070679 131.0 
182.899368 175.0 
183.078903 547.0 
183.540161 389.0 
183.921234 416.0 
184.361191 29.0 
184.403244 246.0 
184.770538 51.0 
185.00177 82.0 
185.021011 74.0 
185.05806 160.0 
185.082565 206.0 
185.167572 142.0 
186.068085 299.0 
186.095337 559.0 
186.325241 273.0 
186.457703 52.0 
186.825546 56.0 
187.059036 121.0 
187.097488 261.0 
187.252975 81.0 
187.326141 104.0 
187.369598 139.0 
187.631638 43.0 
187.857941 289.0 
188.042755 516.0 
188.069046 1200.0 
188.184448 18.0 
188.827255 76.0 
189.089615 8588.0 
189.260071 144.0 
189.437683 181.0 
189.460724 342.0 
189.55632 155.0 
189.584778 229.0 
189.787048 18.0 
189.87059 84.0 
189.898911 264.0 
189.92662 58.0 
189.960831 210.0 
190.004807 262.0 
190.087021 45616.0 
190.1353 23.0 
190.205597 59.0 
190.247971 329.0 
190.342712 231.0 
190.358597 234.0 
190.527222 43.0 
190.749481 128.0 
190.925064 163.0 
191.008408 168.0 
191.092377 11497.0 
191.161377 31.0 
191.191513 229.0 
191.203766 213.0 
191.232681 105.0 
191.295761 89.0 
191.372391 147.0 
191.417435 86.0 
191.468613 381.0 
191.514297 147.0 
191.54332 343.0 
191.563095 619.0 
191.593094 424.0 
191.622635 309.0 
191.671295 507.0 
191.708633 172.0 
191.774521 514.0 
191.815933 138.0 
191.856583 168.0 
191.902527 744.0 
191.938599 463.0 
191.967056 766.0 
191.999298 1025.0 
192.025589 2388.0 
192.102295 1310731.0 
192.152039 381.0 
192.183136 364.0 
192.222443 195.0 
192.281509 748.0 
192.326691 203.0 
192.366562 95.0 
192.406876 191.0 
192.4505 422.0 
192.475769 284.0 
192.498825 411.0 
192.571091 212.0 
192.616943 449.0 
192.634109 526.0 
192.708313 75.0 
192.729156 210.0 
192.779694 44.0 
192.798462 58.0 
192.829025 155.0 
192.89827 58.0 
192.918823 220.0 
192.938538 204.0 
192.979172 321.0 
193.005859 758.0 
193.105453 132433.0 
193.175903 253.0 
193.224594 53.0 
193.24353 75.0 
193.286957 350.0 
193.321762 274.0 
193.372589 66.0 
193.420822 294.0 
193.449692 131.0 
193.478867 115.0 
193.509628 76.0 
193.722397 88.0 
193.741257 109.0 
193.815842 96.0 
193.971359 198.0 
194.006271 133.0 
194.043167 155.0 
194.075836 483.0 
194.109665 3581.0 
194.144272 123.0 
194.168564 62.0 
194.272476 166.0 
194.317108 253.0 
194.371887 171.0 
194.407669 136.0 
194.447052 202.0 
194.475098 443.0 
194.49852 509.0 
194.540741 462.0 
194.570679 503.0 
194.621094 491.0 
194.653992 623.0 
194.689163 658.0 
194.734497 153.0 
194.759552 46.0 
194.779449 143.0 
194.917297 20.0 
195.078674 669.0 
195.197861 89.0 
195.307632 42.0 
195.380737 111.0 
195.414673 67.0 
195.482407 128.0 
195.502441 153.0 
195.537247 137.0 
195.582199 131.0 
195.645432 281.0 
195.669327 154.0 
195.713684 140.0 
195.831055 120.0 
195.875046 72.0 
196.082794 217.0 
196.165573 102.0 
197.062363 199.0 
197.09845 431.0 
197.828705 178.0 
198.012527 36.0 
198.069473 456.0 
198.246292 360.0 
200.066177 88.0 
200.100464 125.0 
200.228363 81.0 
200.917221 88.0 
201.019608 109.0 
201.091461 335.0 
201.300659 32.0 
201.391861 45.0 
201.448639 38.0 
201.602798 108.0 
201.889908 63.0 
201.968018 43.0 
201.990601 21.0 
202.082504 1692.0 
202.196259 142.0 
202.261841 85.0 
202.340836 43.0 
202.834671 97.0 
202.926117 84.0 
203.043411 126.0 
203.090225 612.0 
204.009308 35.0 
204.101624 10607.0 
204.371902 42.0 
204.591278 90.0 
205.015732 27.0 
205.062546 405.0 
205.108536 9735.0 
205.375992 38.0 
205.556076 61.0 
205.711472 73.0 
205.981796 57.0 
206.116119 1785.0 
206.162582 61.0 
206.330521 19.0 
206.351089 84.0 
206.466599 83.0 
206.487198 91.0 
206.549652 93.0 
206.654007 26.0 
206.720123 42.0 
207.088867 217.0 
207.122055 359.0 
208.042267 169.0 
208.095566 588.0 
208.677444 63.0 
209.095688 1706.0 
209.882507 216.0 
209.921494 115.0 
210.097107 706.0 
210.983688 25.0 
211.070404 342.0 
211.963348 295.0 
212.062317 243.0 
212.086365 162.0 
212.164627 47.0 
212.724716 91.0 
212.839661 25.0 
213.316833 372.0 
213.552902 282.0 
213.831467 95.0 
214.089905 380.0 
214.430771 153.0 
215.079163 280.0 
215.092056 235.0 
217.067917 160.0 
217.102051 121.0 
218.071976 1158.0 
218.09346 701.0 
218.118378 1314.0 
218.195587 48.0 
218.92749 198.0 
218.969406 106.0 
219.08223 1059.0 
220.083694 1364.0 
220.840164 86.0 
221.063904 422.0 
221.096329 1827.0 
221.228973 158.0 
221.2742 113.0 
221.673752 55.0 
222.06839 508.0 
222.097031 682.0 
222.948212 137.0 
222.979828 42.0 
223.078598 745.0 
223.106171 709.0 
224.081696 840.0 
225.050949 476.0 
225.089386 160.0 
225.133926 115.0 
225.406815 182.0 
226.096039 509.0 
228.107758 428.0 
228.647217 114.0 
229.066055 152.0 
229.439194 79.0 
230.11557 90.0 
230.363724 267.0 
231.07634 138.0 
231.42482 222.0 
232.051849 172.0 
232.087616 1526.0 
232.139725 345.0 
233.003723 581.0 
233.096756 2505.0 
233.191559 22.0 
233.86705 224.0 
234.068695 1364.0 
234.100128 2166.0 
234.528061 217.0 
235.087006 1732.0 
235.105835 1927.0 
236.080658 1362.0 
236.144379 112.0 
237.050354 156.0 
237.091812 1318.0 
237.123505 613.0 
237.337067 94.0 
237.943344 389.0 
238.099304 2494.0 
238.444565 195.0 
239.064728 563.0 
239.10228 2030.0 
240.074509 72.0 
240.101181 676.0 
240.138763 194.0 
240.46048 308.0 
240.554169 78.0 
240.793213 129.0 
241.127335 777.0 
241.296234 156.0 
242.087524 151.0 
242.124039 291.0 
243.123062 562.0 
243.221786 234.0 
244.140564 427.0 
244.238983 247.0 
245.020966 134.0 
245.052689 222.0 
245.097595 1134.0 
246.066422 109.0 
246.088928 93.0 
246.171875 86.0 
247.014374 94.0 
247.075546 789.0 
247.110077 1592.0 
247.182404 257.0 
247.254044 201.0 
247.630249 197.0 
248.080948 1724.0 
248.197586 79.0 
248.296799 296.0 
248.683319 209.0 
248.809433 275.0 
248.91275 159.0 
249.09288 4321.0 
249.152557 129.0 
250.023849 99.0 
250.062286 450.0 
250.098724 4681.0 
250.610764 132.0 
251.077728 1806.0 
251.106384 3453.0 
251.183395 156.0 
251.261887 42.0 
251.963974 57.0 
252.117874 1925.0 
252.177673 50.0 
252.846207 42.0 
253.051514 172.0 
253.083389 589.0 
253.122452 1296.0 
253.246017 96.0 
253.721756 79.0 
254.093475 1087.0 
254.121292 590.0 
254.454941 206.0 
255.098038 384.0 
256.021118 253.0 
256.065582 223.0 
256.107788 148.0 
256.132141 87.0 
256.369263 185.0 
257.101105 163.0 
257.146057 208.0 
258.756195 110.0 
259.074799 409.0 
259.112579 63.0 
260.08075 492.0 
260.096893 480.0 
261.092377 1578.0 
261.483429 240.0 
262.049377 127.0 
262.099335 947.0 
263.021027 65.0 
263.072144 1402.0 
263.107025 3114.0 
263.693298 65.0 
263.808716 159.0 
264.109314 5062.0 
264.757629 68.0 
265.088928 3101.0 
265.120239 5666.0 
265.437012 89.0 
265.615082 61.0 
265.946411 67.0 
265.971283 186.0 
266.093719 4111.0 
266.119812 3381.0 
266.367279 40.0 
266.838684 111.0 
266.965637 147.0 
267.005768 358.0 
267.099121 1671.0 
267.129944 1364.0 
267.335449 230.0 
267.56485 107.0 
267.962311 72.0 
268.101837 1330.0 
268.131195 1508.0 
268.188904 153.0 
268.702087 91.0 
269.117126 1793.0 
270.146393 339.0 
271.087158 99.0 
271.123352 251.0 
271.742828 115.0 
272.315918 280.0 
273.090454 91.0 
273.143463 73.0 
273.993256 44.0 
274.070923 59.0 
274.096863 204.0 
274.112854 189.0 
275.072906 406.0 
275.129913 1903.0 
275.389862 139.0 
276.100861 660.0 
276.133972 423.0 
277.030243 96.0 
277.088867 1255.0 
277.119598 1489.0 
277.197662 76.0 
277.264984 152.0 
278.091461 3210.0 
278.117523 4032.0 
278.496857 188.0 
278.639709 90.0 
278.986298 203.0 
279.104767 5539.0 
279.165222 354.0 
279.725677 84.0 
280.104279 3716.0 
280.132629 5052.0 
280.179932 32.0 
280.284363 163.0 
280.496643 51.0 
280.740906 72.0 
280.90863 72.0 
280.978363 182.0 
281.003845 66.0 
281.063751 619.0 
281.116028 6903.0 
281.341492 232.0 
281.454224 269.0 
282.033356 31.0 
282.115204 3824.0 
282.149811 513.0 
282.263031 51.0 
282.406738 204.0 
282.8526 467.0 
282.990509 219.0 
283.1203 1666.0 
283.158295 332.0 
283.184021 307.0 
283.301971 54.0 
283.386566 45.0 
283.941345 25.0 
284.092712 207.0 
284.127533 341.0 
284.166626 87.0 
285.107483 183.0 
285.235138 20.0 
285.562683 264.0 
286.440613 73.0 
288.105591 123.0 
289.106964 377.0 
290.069427 204.0 
290.118683 1905.0 
291.099121 1200.0 
291.130615 265.0 
291.282837 272.0 
291.454651 67.0 
291.778992 257.0 
291.880188 101.0 
292.014008 141.0 
292.064575 133.0 
292.102325 2679.0 
292.425049 74.0 
292.542236 133.0 
292.983002 289.0 
293.034943 119.0 
293.117035 11710.0 
294.06723 885.0 
294.11673 5750.0 
294.147827 4155.0 
294.375702 26.0 
295.127808 5431.0 
295.541626 212.0 
295.995667 28.0 
296.132263 7542.0 
297.018646 239.0 
297.121948 4755.0 
298.06485 26.0 
298.142059 8961.0 
298.356628 85.0 
299.108185 208.0 
299.148132 1419.0 
300.167664 246.0 
301.627167 232.0 
304.090302 186.0 
304.230347 261.0 
304.437378 243.0 
304.840393 307.0 
305.750854 41.0 
305.859894 217.0 
306.112579 4142.0 
306.14505 1615.0 
306.355347 175.0 
306.56546 68.0 
306.726318 229.0 
307.083252 91.0 
307.13974 1325.0 
307.381866 196.0 
307.429016 168.0 
308.133484 21110.0 
308.18692 121.0 
308.205811 126.0 
308.804199 50.0 
309.019653 196.0 
309.11557 6876.0 
309.252441 203.0 
309.406952 301.0 
309.732788 106.0 
310.048676 215.0 
310.109009 2879.0 
310.146271 5327.0 
310.23114 156.0 
310.272949 46.0 
310.303955 59.0 
310.570404 108.0 
311.052032 255.0 
311.118164 4748.0 
311.146881 3347.0 
311.613159 78.0 
311.77298 172.0 
312.157715 7827.0 
312.399414 32.0 
312.593201 97.0 
313.153229 2342.0 
314.071808 143.0 
314.132263 148.0 
315.117065 99.0 
315.28302 232.0 
316.578827 139.0 
320.128967 63.0 
321.877167 238.0 
321.926636 65.0 
322.108246 721.0 
322.142792 9664.0 
323.013641 27.0 
323.15033 3621.0 
324.035736 146.0 
324.127899 7838.0 
324.159302 6436.0 
324.430359 99.0 
324.597046 45.0 
325.086182 276.0 
325.128845 4796.0 
325.160645 1655.0 
325.407318 183.0 
326.141968 11111.0 
326.357574 42.0 
326.8573 244.0 
326.9776 75.0 
327.004333 142.0 
327.153717 5216.0 
327.417908 329.0 
328.159363 470.0 
328.194489 141.0 
328.311493 149.0 
333.114624 128.0 
336.122559 130.0 
336.378754 268.0 
337.138397 131.0 
337.647003 116.0 
337.753204 83.0 
338.079254 118.0 
338.135956 580.0 
338.773895 113.0 
339.10141 268.0 
339.161652 5725.0 
340.056152 174.0 
340.155762 35350.0 
340.470825 133.0 
340.517273 55.0 
340.866058 201.0 
341.024384 248.0 
341.085052 87.0 
341.163116 19169.0 
341.255249 264.0 
341.471466 110.0 
341.635651 26.0 
341.772064 130.0 
341.905914 52.0 
341.994507 53.0 
342.096924 130.0 
342.131622 456.0 
342.167999 3247.0 
342.531342 100.0 
343.233856 84.0 
343.456451 47.0 
344.362732 42.0 
344.527008 272.0 
344.617096 55.0 
344.890472 254.0 
345.320435 49.0 
347.990631 198.0 
348.671539 99.0 
348.708771 138.0 
349.829834 64.0 
350.633209 129.0 
351.390778 48.0 
352.133942 66.0 
352.193878 189.0 
352.316101 153.0 
352.64209 26.0 
352.930115 313.0 
353.08194 217.0 
353.343567 115.0 
353.383881 150.0 
354.164917 1050.0 
354.226929 251.0 
354.430908 89.0 
354.624451 135.0 
354.735077 304.0 
354.891602 199.0 
354.929688 239.0 
355.01236 69.0 
355.063416 182.0 
355.152679 170.0 
355.177429 134.0 
355.208191 314.0 
355.319611 198.0 
355.358673 86.0 
355.506958 413.0 
355.596954 238.0 
355.647949 94.0 
355.695831 283.0 
355.741547 319.0 
355.792786 93.0 
355.86969 65.0 
355.896667 158.0 
355.951996 389.0 
355.985352 418.0 
356.016388 315.0 
356.093292 2459.0 
356.187256 593460.0 
356.270386 118.0 
356.319275 104.0 
356.395691 229.0 
356.459961 294.0 
356.491058 230.0 
356.542236 480.0 
356.585327 362.0 
356.624786 173.0 
356.669739 207.0 
356.722473 324.0 
356.865631 56.0 
356.904327 97.0 
356.956268 101.0 
357.023071 41.0 
357.075012 797.0 
357.190369 78439.0 
357.29248 18.0 
357.316833 30.0 
357.36087 347.0 
357.41098 97.0 
357.476379 82.0 
357.571594 46.0 
357.670044 60.0 
357.706421 58.0 
357.782959 257.0 
357.813995 48.0 
357.867828 58.0 
357.898132 93.0 
357.940491 115.0 
358.003418 28.0 
358.061829 85.0 
358.158997 224.0 
358.192657 946.0 
358.600494 64.0 
358.772919 75.0 
358.839752 19.0 
359.054321 130.0 
359.141846 19.0 
359.208496 126.0 
359.301239 122.0 
359.389526 263.0 
359.465179 67.0 
359.498535 191.0 
359.53775 298.0 
359.587219 98.0 
359.642883 791.0 
359.684723 282.0 
359.717224 289.0 
359.778412 278.0 
359.822571 125.0 
359.857758 98.0 
360.014313 170.0 
360.040771 93.0 
360.322418 115.0 
360.657684 44.0 
360.77652 88.0 
361.899384 54.0 
363.002533 160.0 
368.66571 47.0 
368.988647 103.0 
369.364044 66.0 
371.008484 162.0 
375.340759 50.0 
375.384918 68.0 
375.819641 55.0 
378.410217 41.0 
400.504059 104.0 
408.395813 76.0 
424.256622 25.0 
510.627747 99.0 
513.260986 74.0 
523.232056 131.0 
527.039368 87.0 
596.027832 57.0 
627.147095 33.0 
690.470032 59.0 
727.01355 27.0 
762.673157 55.0 
893.24884 157.0 
999.216003 75.0 
1146.532104 72.0 
1205.330566 66.0 
1355.295776 194.0 
1357.956787 225.0 
1384.118286 152.0 
1402.890015 177.0 
1435.107422 179.0 
1445.634033 271.0 
1484.784912 318.0 
1484.949829 157.0 
1485.290283 18.0 
1505.95752 26.0 
1506.033813 72.0 
1517.143799 123.0 
1520.584106 158.0 
1520.791016 88.0 
1528.046753 105.0 
1532.73877 124.0 
1555.495972 394.0 
1570.926025 163.0 
1600.074097 164.0 
1605.642822 109.0 
1610.513062 276.0 
1625.67041 367.0 
1630.171509 78.0 
1636.310791 241.0 
1644.501465 234.0 
1644.733398 30.0 
1659.302856 288.0 
1687.036377 29.0 
1702.950928 186.0 
1714.611328 180.0 
1719.842529 21.0 
1721.526367 118.0 
1746.281128 277.0 
1754.062134 175.0 
1756.239624 311.0 
1762.822266 166.0 
1769.173096 233.0 
1782.154053 76.0 
1784.082886 256.0 
1840.88269 186.0 
1855.856812 148.0 
1856.875122 70.0 
1858.016235 203.0 
1858.457764 92.0 
1866.632202 126.0 
1868.684937 90.0 
1869.810791 250.0 
1870.037354 224.0 
1894.251587 262.0 
1901.710205 81.0 
1902.384277 142.0 
1912.988281 338.0 
1925.761597 211.0 
1926.352173 29.0 
1931.821167 251.0 
1933.884155 244.0 
1934.253296 243.0 
1970.37146 205.0 
1987.007324 91.0 
END IONS

BEGIN IONS
TITLE=Scan Number: 132
PEPMASS=357.15399
CHARGE=1+
MSLEVEL=2
FILENAME=A11_GA11_01_2691.mzXML
INSTRUMENT=ion trap
SCANS=132
SMILES=COC(\C=C\C(OC(C)=O)C(C)OC(C)=O)C(O)C1CC=CC(=O)O1
INCHIKEY=STNNWPKHRBGYMO-CMDGGOBGSA-N
71.047935 574.0 
79.054718 2107.0 
80.05574 162.0 
81.0336 180.0 
81.068657 1363.0 
81.523651 91.0 
91.053848 834.0 
95.049545 872.0 
96.057381 345.0 
97.028366 402.0 
97.058556 232.0 
99.044479 172.0 
103.056412 197.0 
105.047104 401.0 
105.069321 277.0 
108.05838 207.0 
111.080185 3247.0 
112.084747 335.0 
115.053459 285.0 
117.070938 938.0 
118.073616 124.0 
119.04438 144.0 
120.059174 240.0 
125.060982 132.0 
129.067581 276.0 
131.058945 175.0 
131.085388 421.0 
133.066193 222.0 
135.046371 147.0 
135.081894 537.0 
136.080673 209.0 
137.061264 128.0 
140.169342 263.0 
141.073898 357.0 
143.085144 436.0 
144.056168 273.0 
145.069031 1022.0 
146.069519 304.0 
147.043243 167.0 
147.084457 333.0 
148.082031 425.0 
149.05661 190.0 
149.078873 325.0 
150.067764 351.0 
151.074478 303.0 
155.061981 249.0 
158.055786 91.0 
159.079758 1385.0 
160.073639 342.0 
161.082214 109.0 
162.893509 257.0 
163.052322 189.0 
163.078629 1348.0 
164.067093 93.0 
165.092926 478.0 
166.092896 190.0 
174.057739 103.0 
175.060242 107.0 
176.074295 791.0 
177.080093 740.0 
178.094147 117.0 
179.069473 318.0 
181.086624 562.0 
182.043289 98.0 
187.076218 359.0 
192.102783 1837.0 
193.10878 1752.0 
205.091431 1028.0 
206.088425 123.0 
219.098938 301.0 
223.100891 1069.0 
237.109604 178.0 
256.128937 181.0 
292.140472 179.0 
294.119171 214.0 
295.130432 189.0 
297.128204 472.0 
301.142487 139.0 
309.110413 190.0 
312.153503 121.0 
327.668945 125.0 
341.166046 142.0 
356.180542 439.0 
357.108643 189.0 
357.192108 2714.0 
358.184387 206.0 
360.841339 84.0 
1787.478271 335.0 
END IONS

BEGIN IONS
TITLE=Scan Number: 133
PEPMASS=374.181
CHARGE=1+
MSLEVEL=2
FILENAME=A11_GA11_01_2691.mzXML
INSTRUMENT=ion trap
SCANS=133
SMILES=COC(\C=C\C(OC(C)=O)C(C)OC(C)=O)C(O)C1CC=CC(=O)O1
INCHIKEY=STNNWPKHRBGYMO-CMDGGOBGSA-N
71.04866 1235.0 
74.264114 268.0 
75.870796 318.0 
77.03904 1213.0 
77.425629 106.0 
78.035904 268.0 
79.05336 15501.0 
79.093246 94.0 
79.224922 88.0 
79.543648 83.0 
80.057312 1229.0 
80.128532 117.0 
80.871452 96.0 
81.03215 722.0 
81.069374 12444.0 
81.171356 191.0 
82.071663 596.0 
83.047928 346.0 
84.501274 82.0 
85.028099 210.0 
86.216812 304.0 
86.50351 271.0 
86.543449 48.0 
89.194466 43.0 
91.053978 4857.0 
92.060043 337.0 
92.670029 226.0 
93.031303 144.0 
93.069969 2301.0 
94.074776 146.0 
94.671906 169.0 
95.013474 4165.0 
95.050293 6616.0 
95.232635 213.0 
95.624702 208.0 
96.017815 702.0 
96.058174 2452.0 
97.029121 9642.0 
97.062164 490.0 
98.030357 1082.0 
99.044701 218.0 
101.491951 72.0 
103.055748 320.0 
104.060997 150.0 
104.831619 61.0 
105.044609 4744.0 
105.07019 2332.0 
106.045158 143.0 
106.073059 385.0 
107.049332 1720.0 
107.085121 1233.0 
109.028603 814.0 
109.064934 2027.0 
109.097847 261.0 
109.233696 195.0 
110.070602 260.0 
110.177315 139.0 
110.908501 59.0 
111.047562 1311.0 
111.080948 61813.0 
111.26741 142.0 
111.481232 109.0 
111.497292 134.0 
111.822746 76.0 
112.083244 3225.0 
112.656593 111.0 
112.726486 99.0 
113.018166 319.0 
113.054291 52.0 
113.149475 47.0 
113.954659 193.0 
115.054337 2493.0 
116.058235 326.0 
117.070038 9443.0 
118.073112 808.0 
118.999794 197.0 
119.048729 2353.0 
119.08503 577.0 
120.016121 59.0 
120.056671 468.0 
121.028717 733.0 
121.065666 1876.0 
121.546776 136.0 
123.043343 1275.0 
123.081772 951.0 
124.138786 202.0 
125.024925 141.0 
125.060509 725.0 
125.545471 131.0 
126.010406 74.0 
127.042229 1454.0 
127.078178 635.0 
128.063538 1214.0 
129.064804 613.0 
130.058945 143.0 
131.05246 297.0 
131.08725 4045.0 
132.057755 333.0 
132.089493 638.0 
132.491913 71.0 
132.817139 102.0 
133.064529 7160.0 
133.102112 722.0 
133.176529 136.0 
134.069061 386.0 
135.025131 218.0 
135.043472 524.0 
135.081757 5866.0 
136.085144 773.0 
137.062881 954.0 
137.160965 130.0 
138.064102 129.0 
139.036072 233.0 
139.07579 107.0 
141.068985 1774.0 
141.093384 602.0 
142.073929 406.0 
143.067871 279.0 
143.086334 1441.0 
143.147614 54.0 
144.057053 2843.0 
145.028915 144.0 
145.064575 12639.0 
146.068436 468.0 
146.771805 57.0 
147.044678 2466.0 
147.081467 548.0 
148.085129 322.0 
149.06041 511.0 
149.095627 1364.0 
151.075668 1197.0 
152.061768 137.0 
152.083298 129.0 
153.055435 615.0 
153.09935 108.0 
155.036713 243.0 
155.059982 3724.0 
155.632065 196.0 
156.046722 120.0 
157.068665 308.0 
157.338837 121.0 
157.606812 154.0 
158.071014 167.0 
159.043076 121.0 
159.081543 8676.0 
160.054367 194.0 
160.086075 464.0 
160.303406 68.0 
161.059341 1546.0 
161.094086 1006.0 
162.743576 71.0 
162.828659 404.0 
163.035355 359.0 
163.076096 13642.0 
164.049759 190.0 
164.081482 1040.0 
164.759094 51.0 
165.055237 1882.0 
165.094177 86.0 
166.061386 160.0 
168.056793 157.0 
169.072647 969.0 
171.067444 977.0 
173.097794 250.0 
175.077011 414.0 
175.114838 202.0 
176.079056 140.0 
176.109253 133.0 
177.09198 4487.0 
178.074158 220.0 
178.093338 482.0 
179.072052 3681.0 
179.438202 82.0 
180.055801 118.0 
181.046844 242.0 
181.085999 4021.0 
182.088699 460.0 
183.809479 42.0 
185.057358 175.0 
186.789047 330.0 
187.076324 5324.0 
187.113113 112.0 
187.71405 46.0 
188.056152 167.0 
188.078506 346.0 
191.110519 310.0 
192.119354 259.0 
193.81955 223.0 
195.113342 248.0 
197.082413 800.0 
201.092896 665.0 
205.086349 13847.0 
205.360229 131.0 
205.461334 108.0 
206.088806 480.0 
207.487961 51.0 
209.114471 402.0 
214.941589 161.0 
219.101654 1721.0 
221.086777 171.0 
221.965683 119.0 
222.44281 77.0 
223.053757 129.0 
223.097809 15436.0 
224.098495 1282.0 
225.498077 145.0 
237.113724 4059.0 
239.908066 136.0 
241.101639 155.0 
241.981247 240.0 
247.098434 118.0 
255.123962 2297.0 
256.12616 812.0 
265.106995 3824.0 
266.105194 137.0 
297.092285 298.0 
297.136536 2573.0 
298.144196 175.0 
325.120087 222.0 
356.157593 185.0 
374.235382 162.0 
1352.824585 128.0 
1414.716797 237.0 
1508.572754 60.0 
1647.828613 272.0 
1680.016968 220.0 
1708.385132 219.0 
1735.92395 208.0 
1760.373901 160.0 
1772.449219 225.0 
1826.889771 244.0 
1843.418579 236.0 
1879.68396 284.0 
1881.376709 155.0 
1923.851562 98.0 
1958.125977 246.0 
END IONS

BEGIN IONS
TITLE=Scan Number: 134
PEPMASS=432.202
CHARGE=1+
MSLEVEL=2
FILENAME=A11_GA11_01_2691.mzXML
INSTRUMENT=ion trap
SCANS=134
SMILES=COC1=C2C(OC3=C(COC2=O)C=C(C)C=C3O)=CC=C1C(CC(C)C)OC(C)=O
INCHIKEY=NUYFKDBCHFKOBT-UHFFFAOYSA-N
71.05027 272.0 
72.471298 306.0 
76.237091 258.0 
77.037788 742.0 
79.054733 601.0 
82.799988 163.0 
95.049095 450.0 
96.054901 218.0 
105.03141 829.0 
105.071716 375.0 
107.047211 671.0 
115.056213 84.0 
117.072151 150.0 
117.152855 132.0 
119.049004 621.0 
121.025772 197.0 
121.0644 239.0 
122.068611 250.0 
128.061401 156.0 
130.059814 149.0 
131.086319 139.0 
133.002258 340.0 
133.029297 5389.0 
134.033264 614.0 
134.069 295.0 
135.040375 628.0 
137.055359 197.0 
141.06926 162.0 
144.655411 111.0 
145.069046 192.0 
145.915421 114.0 
146.013184 192.0 
147.036407 169.0 
147.083405 230.0 
148.047226 252.0 
149.05925 744.0 
150.067291 205.0 
151.042435 496.0 
153.071167 404.0 
154.968109 303.0 
155.81308 171.0 
159.081512 165.0 
160.567963 117.0 
161.02475 102.0 
162.069687 236.0 
162.623581 109.0 
163.039673 55283.0 
163.338928 94.0 
163.494644 137.0 
164.04184 3829.0 
164.792847 115.0 
165.038376 291.0 
166.100021 228.0 
167.074112 164.0 
169.100174 203.0 
173.849136 255.0 
175.041504 520.0 
176.070007 164.0 
177.513702 86.0 
178.071884 456.0 
179.0802 769.0 
180.093811 171.0 
181.050766 1478.0 
182.041306 134.0 
182.073608 773.0 
182.880371 217.0 
183.121704 107.0 
184.095291 170.0 
185.049194 186.0 
185.093658 123.0 
192.105179 651.0 
193.155533 112.0 
194.068222 163.0 
195.076721 1130.0 
196.089325 214.0 
197.059906 117.0 
197.096298 407.0 
197.970047 346.0 
198.041977 165.0 
198.067352 1180.0 
198.110886 175.0 
199.078568 190.0 
201.053513 205.0 
201.091278 355.0 
202.058548 122.0 
203.086349 204.0 
204.561569 323.0 
205.098145 157.0 
207.085678 621.0 
209.057297 150.0 
209.090012 470.0 
210.065201 457.0 
210.106781 522.0 
211.07486 1267.0 
212.082336 1107.0 
213.093018 877.0 
215.077347 153.0 
217.103043 160.0 
219.101074 2690.0 
219.229767 310.0 
220.040298 203.0 
220.108841 403.0 
223.028183 172.0 
223.078857 787.0 
223.473022 166.0 
224.04985 154.0 
224.083496 378.0 
225.056213 323.0 
225.091583 2473.0 
225.859863 168.0 
226.067978 672.0 
226.093079 960.0 
227.107941 614.0 
227.969543 85.0 
228.081223 203.0 
228.636063 249.0 
229.051178 165.0 
231.07518 144.0 
231.098267 208.0 
234.067978 246.0 
234.140762 282.0 
235.070908 425.0 
235.112503 347.0 
236.123566 137.0 
237.091614 221.0 
238.060623 106.0 
238.101212 471.0 
239.069458 691.0 
240.075607 1840.0 
240.896667 120.0 
241.086929 1459.0 
241.203476 84.0 
243.10994 277.0 
246.104797 325.0 
247.114868 128.0 
249.090347 412.0 
250.091431 472.0 
250.135773 276.0 
251.054672 378.0 
251.109314 316.0 
252.142609 219.0 
253.049026 1050.0 
253.088608 921.0 
254.055984 995.0 
254.091721 361.0 
255.071732 1312.0 
255.103073 8726.0 
256.106171 1014.0 
258.096313 175.0 
260.102631 186.0 
261.121735 137.0 
262.097839 437.0 
263.103088 327.0 
263.386261 239.0 
263.869415 249.0 
265.138092 302.0 
265.162872 676.0 
267.063385 756.0 
267.460663 131.0 
268.078979 359.0 
268.498962 133.0 
268.585785 87.0 
268.746552 241.0 
269.082977 35850.0 
270.086365 3993.0 
271.036377 418.0 
271.065369 842.0 
271.099365 940.0 
272.068024 432.0 
278.304077 129.0 
278.70816 109.0 
279.064178 235.0 
279.10083 118.0 
279.135925 900.0 
280.118378 251.0 
280.150818 166.0 
281.081787 544.0 
281.123535 187.0 
282.076416 119.0 
282.262604 144.0 
284.079987 130.0 
285.083588 237.0 
286.071899 277.0 
286.769073 298.0 
287.092072 6551.0 
287.49353 172.0 
288.048187 181.0 
288.097443 1378.0 
290.300385 100.0 
293.086151 171.0 
293.159332 644.0 
294.123657 362.0 
294.152405 185.0 
294.577454 273.0 
295.097351 567.0 
295.135498 170.0 
296.144226 503.0 
297.168579 195.0 
298.9776 225.0 
299.012024 313.0 
299.092499 46239.0 
299.185425 401.0 
299.300751 74.0 
299.472717 169.0 
300.001923 174.0 
300.097687 6448.0 
302.236908 178.0 
303.099091 212.0 
305.119476 2268.0 
306.125549 155.0 
307.100159 576.0 
311.167114 2727.0 
312.171387 756.0 
313.156342 141.0 
318.496185 156.0 
319.150421 119.0 
323.133911 316.0 
324.130707 123.0 
325.104767 136.0 
325.143463 1042.0 
337.140686 2375.0 
338.150909 564.0 
354.195709 136.0 
355.155975 7404.0 
355.513611 224.0 
356.125031 102.0 
356.159119 2027.0 
356.277374 111.0 
356.810394 143.0 
385.173767 162.0 
433.330109 164.0 
1335.121704 298.0 
1657.261108 95.0 
1664.168091 128.0 
1670.542236 165.0 
1884.579102 159.0 
END IONS

BEGIN IONS
TITLE=Scan Number: 135
PEPMASS=451.12299
CHARGE=1+
MSLEVEL=2
FILENAME=A11_GA11_01_2691.mzXML
INSTRUMENT=ion trap
SCANS=135
SMILES=OC[C@H]1OC([C@H](O)[C@@H](O)[C@@H]1O)C2=C(O)C=C3O[C@@H]([C@@H](O)C(=O)C3=C2O)C4=CC=C(O)C=C4
INCHIKEY=SPSWAOUJDYQZHR-OIKOUPSRSA-N
79.05262 342.0 
85.02774 392.0 
91.054649 521.0 
96.054138 185.0 
97.029022 325.0 
107.04879 8365.0 
108.052368 650.0 
111.007126 273.0 
118.081924 250.0 
119.041695 142.0 
121.028229 2489.0 
121.065338 200.0 
122.764748 311.0 
123.043991 663.0 
125.023872 173.0 
131.044937 152.0 
132.707794 92.0 
133.026276 85.0 
135.005554 122.0 
135.044128 1161.0 
136.118668 181.0 
137.021759 152.0 
138.026443 158.0 
139.039215 1536.0 
141.01619 486.0 
141.070648 163.0 
142.023224 109.0 
144.138382 228.0 
145.027573 133.0 
145.062973 133.0 
146.030365 304.0 
147.002533 135.0 
147.045609 468.0 
149.02272 440.0 
149.407272 173.0 
151.021622 145.0 
153.021164 582.0 
153.058044 410.0 
157.071579 256.0 
159.043518 142.0 
161.020752 137.0 
162.99765 194.0 
163.041458 1013.0 
163.710663 159.0 
164.038315 176.0 
165.018066 6944.0 
166.022797 546.0 
167.0383 289.0 
169.071213 266.0 
173.023941 1315.0 
173.060379 371.0 
174.025269 357.0 
175.090912 203.0 
176.060898 98.0 
177.018845 1559.0 
178.004654 251.0 
178.02536 510.0 
178.063095 192.0 
179.03183 252.0 
179.054428 227.0 
183.028091 985.0 
183.080734 162.0 
184.048187 99.0 
185.049988 279.0 
186.029526 185.0 
187.041168 888.0 
189.017456 592.0 
189.050568 317.0 
191.035202 1557.0 
192.088745 140.0 
192.847748 232.0 
193.050598 157.0 
193.079941 340.0 
194.04567 323.0 
195.030991 5330.0 
196.03273 849.0 
197.295502 138.0 
199.068054 143.0 
202.98941 166.0 
203.030518 244.0 
205.010666 147.0 
205.048645 879.0 
205.09642 128.0 
207.030441 402.0 
207.078094 87.0 
209.008026 306.0 
209.046066 179.0 
210.083817 138.0 
211.07724 703.0 
212.084518 204.0 
213.094498 289.0 
215.036804 488.0 
215.075516 314.0 
216.041214 178.0 
219.029999 1346.0 
220.013596 108.0 
221.050461 292.0 
222.063675 180.0 
223.019608 161.0 
223.077545 321.0 
225.092331 343.0 
226.057327 179.0 
227.071442 103.0 
228.079193 179.0 
230.054199 157.0 
231.029907 3372.0 
233.043549 94.0 
234.027893 159.0 
235.067169 438.0 
237.094254 170.0 
239.040329 154.0 
239.070557 3596.0 
240.0681 226.0 
241.053131 884.0 
242.053925 555.0 
243.072586 365.0 
247.061798 134.0 
249.038696 2038.0 
250.036209 144.0 
251.071625 207.0 
253.08667 467.0 
255.068542 742.0 
257.07962 1242.0 
258.084381 128.0 
259.086426 197.0 
261.038147 1470.0 
263.066528 142.0 
264.054108 102.0 
265.031097 212.0 
265.082489 193.0 
267.065582 1961.0 
268.06778 95.0 
269.081299 1042.0 
271.062744 516.0 
279.05899 1177.0 
280.068787 232.0 
281.079468 1090.0 
281.948608 123.0 
282.08606 398.0 
283.057953 553.0 
284.066833 225.0 
284.275818 164.0 
284.334625 80.0 
285.076935 4449.0 
286.084656 738.0 
289.073639 304.0 
290.062897 109.0 
291.053772 204.0 
293.072418 117.0 
295.055756 320.0 
297.077393 919.0 
300.036499 97.0 
301.072662 4113.0 
302.076782 646.0 
305.0896 328.0 
309.076233 1210.0 
310.081268 905.0 
313.034424 139.0 
313.073151 2643.0 
314.075928 242.0 
323.091461 530.0 
325.071594 523.0 
326.06842 138.0 
331.088837 2806.0 
334.084442 126.0 
337.074158 227.0 
339.090179 242.0 
341.099091 184.0 
343.070587 178.0 
343.110626 114.0 
350.108002 277.0 
351.09137 1288.0 
352.094452 143.0 
355.078186 2088.0 
355.282776 101.0 
356.087341 163.0 
361.071228 147.0 
367.084351 2082.0 
368.085724 131.0 
369.10437 362.0 
370.046326 132.0 
379.082153 1104.0 
380.073639 207.0 
381.099548 170.0 
385.08429 331.0 
389.12439 91.0 
397.095032 1387.0 
398.084747 293.0 
415.104462 1024.0 
416.109344 180.0 
433.114105 133.0 
702.172791 127.0 
1900.787476 284.0 
1985.397827 176.0 
END IONS

BEGIN IONS
TITLE=Scan Number: 136
PEPMASS=381.15399
CHARGE=1+
MSLEVEL=2
FILENAME=G3_RG3_01_2949.mzXML
INSTRUMENT=ion trap
SCANS=136
SMILES=COC(=O)C1=C(C)C=C(OC2=C(C)C(=O)C(O)C(C)(OC)C2O)C(C)=C1O
INCHIKEY=BXZJZDQDHHZIIB-UHFFFAOYSA-N
69.996948 274.0 
70.290756 61.0 
71.218323 101.0 
71.920403 123.0 
72.631577 134.0 
73.045731 334.0 
73.065933 177.0 
74.729134 274.0 
76.696228 232.0 
76.753174 231.0 
76.788429 341.0 
77.038292 4830.0 
77.742554 101.0 
77.816139 147.0 
78.047386 204.0 
78.333237 213.0 
79.053993 36830.0 
79.094795 123.0 
79.337708 210.0 
79.809982 263.0 
80.030548 232.0 
80.057434 2251.0 
80.485374 116.0 
80.748871 60.0 
81.032944 1419.0 
81.068893 5167.0 
81.164871 341.0 
82.038361 144.0 
82.052383 186.0 
82.073883 176.0 
82.983116 174.0 
83.011948 7371.0 
83.049545 1429.0 
83.079758 403.0 
83.709534 164.0 
84.105812 195.0 
84.124886 262.0 
85.000565 256.0 
85.027222 541.0 
88.069107 81.0 
88.542618 264.0 
90.042038 154.0 
90.330032 109.0 
91.053841 4120.0 
91.637703 239.0 
92.92234 314.0 
93.070061 1512.0 
94.040932 219.0 
94.07296 168.0 
94.393127 116.0 
95.021896 175.0 
95.049179 10576.0 
95.541885 151.0 
96.055672 1880.0 
97.028831 4565.0 
97.063278 4175.0 
97.47654 249.0 
98.07003 199.0 
98.815041 287.0 
99.042824 429.0 
101.72438 229.0 
103.462173 244.0 
103.763641 88.0 
105.044762 22153.0 
105.284149 67.0 
105.530853 232.0 
106.047981 645.0 
106.673599 122.0 
106.731369 306.0 
106.948814 82.0 
106.978989 533.0 
107.048912 96803.0 
107.335968 270.0 
107.652527 206.0 
108.052689 6360.0 
108.573761 75.0 
108.613853 151.0 
108.763687 147.0 
109.022118 152.0 
109.064964 16941.0 
109.127586 84.0 
110.067337 1256.0 
111.043739 2159.0 
111.079758 6499.0 
112.04847 179.0 
112.081856 456.0 
112.166008 133.0 
113.022087 1002.0 
113.841484 228.0 
115.035553 429.0 
117.017555 161.0 
117.068832 153.0 
117.31115 71.0 
119.049721 1226.0 
119.086166 429.0 
120.784271 104.0 
120.997101 186.0 
121.027748 306.0 
121.064659 894.0 
121.630264 209.0 
122.060814 228.0 
122.217644 159.0 
123.046608 153.0 
123.078308 231.0 
123.740005 114.0 
124.032806 189.0 
124.053482 693.0 
124.080772 243.0 
124.878716 153.0 
125.059494 20122.0 
125.153488 150.0 
126.062538 1784.0 
126.394676 71.0 
126.798195 178.0 
127.037643 173.0 
128.061859 117.0 
129.054718 185.0 
130.07785 230.0 
130.680008 123.0 
131.050018 280.0 
131.08252 336.0 
132.062515 301.0 
132.086914 203.0 
132.644318 136.0 
133.051605 225.0 
133.104004 591.0 
134.472168 141.0 
134.618042 175.0 
134.767883 57.0 
134.988785 158.0 
135.005356 331.0 
135.043488 38903.0 
135.082596 189.0 
135.951126 121.0 
136.048508 3179.0 
137.030914 210.0 
137.060074 7488.0 
137.235641 137.0 
138.067474 601.0 
138.128967 83.0 
139.039185 1165.0 
139.074844 32127.0 
139.12468 68.0 
139.258286 87.0 
139.845322 111.0 
140.038315 160.0 
140.079147 2390.0 
140.149078 339.0 
140.641693 183.0 
141.073013 739.0 
141.230179 115.0 
141.48764 247.0 
141.717728 84.0 
141.982452 227.0 
142.079941 181.0 
143.084518 700.0 
143.430939 160.0 
143.466415 274.0 
144.055771 337.0 
144.676147 92.0 
145.063232 383.0 
145.100098 133.0 
145.293594 94.0 
145.951752 306.0 
146.068436 366.0 
146.104248 95.0 
147.230286 100.0 
149.060181 779.0 
149.095795 956.0 
150.028046 298.0 
150.064484 243.0 
151.019257 296.0 
151.039078 385.0 
151.073578 470.0 
152.048035 591.0 
152.629761 142.0 
152.717819 115.0 
152.985931 77.0 
153.054382 110571.0 
153.129807 89.0 
153.142441 109.0 
153.202484 126.0 
153.28302 183.0 
153.416245 195.0 
153.749207 87.0 
154.057632 7177.0 
155.069763 135.0 
155.259933 55.0 
155.278915 193.0 
155.38765 169.0 
155.987091 60.0 
156.082611 203.0 
157.095856 207.0 
158.072906 239.0 
159.07782 884.0 
160.089661 313.0 
160.309418 218.0 
161.060425 962.0 
161.095505 1248.0 
161.134323 131.0 
161.837097 186.0 
162.066711 1986.0 
162.155045 203.0 
163.015991 159.0 
163.038681 99.0 
163.075272 1274.0 
163.318878 167.0 
163.409393 92.0 
163.801804 230.0 
163.89798 68.0 
164.022324 140.0 
164.047607 884.0 
164.447021 70.0 
164.540604 147.0 
164.610825 54.0 
164.732483 71.0 
164.846924 142.0 
164.882553 123.0 
164.917648 173.0 
165.054199 320760.0 
165.114166 54.0 
165.147491 506.0 
165.178314 131.0 
165.282837 276.0 
165.32431 104.0 
165.343826 120.0 
165.44223 82.0 
165.594391 129.0 
165.657623 72.0 
165.733322 186.0 
165.757431 89.0 
165.928894 56.0 
165.980591 297.0 
166.006302 99.0 
166.057617 24412.0 
166.165024 91.0 
166.406647 112.0 
166.466415 59.0 
166.779678 75.0 
166.894287 140.0 
166.985779 167.0 
167.069473 9929.0 
167.143768 70.0 
167.182709 152.0 
167.242844 130.0 
167.319565 607.0 
167.379913 68.0 
167.480621 272.0 
167.582382 113.0 
167.98587 204.0 
168.075378 348.0 
168.974197 127.0 
169.068558 571.0 
169.855667 152.0 
170.190353 185.0 
170.809387 60.0 
171.076584 757.0 
171.119705 210.0 
171.723206 165.0 
172.043839 118.0 
172.090714 999.0 
172.181244 105.0 
172.811935 106.0 
173.059708 179.0 
173.096527 625.0 
173.125763 140.0 
173.500107 82.0 
174.071609 527.0 
174.109772 253.0 
174.171295 119.0 
174.664276 78.0 
175.077637 377.0 
175.113831 414.0 
175.567596 66.0 
176.076752 154.0 
177.052002 2651.0 
178.06189 1881.0 
179.035492 517.0 
179.072067 712.0 
180.070953 72.0 
181.05069 196.0 
181.102814 87.0 
182.079224 101.0 
183.06543 279.0 
185.056686 309.0 
185.09523 429.0 
185.516602 79.0 
186.088593 492.0 
186.125839 129.0 
187.078171 398.0 
187.105988 250.0 
188.082886 1108.0 
188.111404 149.0 
189.05159 687.0 
189.091385 5596.0 
190.061111 1276.0 
190.091171 446.0 
191.070312 482.0 
191.106995 127.0 
193.049606 523.0 
195.070999 502.0 
195.452362 182.0 
197.044449 387.0 
197.081512 4364.0 
198.065033 430.0 
198.473938 216.0 
199.076477 611.0 
199.108795 110.0 
199.36348 129.0 
200.078247 838.0 
200.118011 144.0 
200.229935 262.0 
200.582703 215.0 
201.09227 342.0 
202.060669 190.0 
202.100616 803.0 
203.073959 168.0 
203.105927 446.0 
203.875656 304.0 
205.051605 1055.0 
205.085678 31355.0 
205.329666 68.0 
206.088577 3363.0 
206.439651 162.0 
207.088104 96.0 
209.101913 77.0 
210.92218 100.0 
212.081802 1092.0 
212.498917 59.0 
213.062683 202.0 
213.091446 408.0 
213.606216 106.0 
214.095123 69.0 
215.071136 1174.0 
215.107224 2110.0 
216.07962 246.0 
216.101028 227.0 
217.083878 7109.0 
217.125 1640.0 
218.092361 821.0 
218.122192 110.0 
219.067978 264.0 
219.096436 528.0 
221.081207 971.0 
223.087921 159.0 
225.089371 660.0 
226.050171 151.0 
226.093994 139.0 
227.103378 1476.0 
228.083191 270.0 
229.083603 782.0 
229.120483 510.0 
230.095047 962.0 
231.063568 425.0 
231.102356 290.0 
232.108627 210.0 
233.08075 1029.0 
235.732178 257.0 
238.063385 343.0 
239.021576 137.0 
239.066696 124.0 
240.08522 202.0 
240.737076 122.0 
241.086761 360.0 
242.052765 321.0 
242.577713 115.0 
243.069366 1106.0 
243.101822 8023.0 
244.100693 1023.0 
244.683014 306.0 
244.935669 86.0 
245.115723 17938.0 
245.442749 61.0 
245.643661 199.0 
245.929031 91.0 
246.084045 212.0 
246.120377 2862.0 
246.39534 65.0 
247.107986 322.0 
248.389069 134.0 
248.52092 171.0 
253.085983 302.0 
253.218369 230.0 
255.053268 445.0 
255.100113 2240.0 
256.074585 883.0 
256.675873 59.0 
257.083954 244.0 
257.318726 65.0 
258.092865 630.0 
259.130737 283.0 
259.508392 131.0 
261.073608 703.0 
261.104675 933.0 
262.111664 53.0 
269.859161 87.0 
270.085175 138.0 
271.095886 12950.0 
271.358307 76.0 
272.033813 53.0 
272.101471 1725.0 
272.663483 259.0 
273.111542 26861.0 
273.415894 128.0 
273.693909 86.0 
273.997955 100.0 
274.077332 117.0 
274.113586 2519.0 
275.609924 168.0 
276.241302 55.0 
280.088867 147.0 
287.101501 91.0 
289.059204 136.0 
289.106934 3998.0 
289.807617 73.0 
290.114929 401.0 
290.673248 107.0 
299.090454 3295.0 
300.087494 790.0 
302.072052 196.0 
303.121552 711.0 
304.340332 89.0 
304.444214 64.0 
305.138062 3968.0 
305.256348 51.0 
305.290588 170.0 
306.139221 238.0 
313.108276 513.0 
317.101501 10652.0 
318.008545 203.0 
318.108826 1262.0 
324.92691 74.0 
331.11734 2546.0 
332.124725 540.0 
346.562103 106.0 
348.940308 287.0 
349.032684 187.0 
349.126984 10619.0 
350.129761 1803.0 
352.693359 62.0 
447.642944 56.0 
502.456909 125.0 
883.84137 65.0 
1043.8302 118.0 
1094.202881 221.0 
1119.920288 152.0 
1185.459717 238.0 
1196.371338 93.0 
1198.457886 124.0 
1199.621216 86.0 
1362.24646 292.0 
1468.542847 234.0 
1485.990967 208.0 
1492.643188 233.0 
1541.73584 199.0 
1560.075439 152.0 
1567.342651 186.0 
1600.876709 215.0 
1620.982178 244.0 
1623.257568 128.0 
1626.422607 246.0 
1641.631836 294.0 
1645.94397 219.0 
1741.363525 191.0 
1759.191406 226.0 
1767.542969 223.0 
1779.710815 134.0 
1789.424072 315.0 
1799.616089 325.0 
1815.940063 374.0 
1871.567261 154.0 
1884.451172 225.0 
1889.722412 213.0 
1908.663452 199.0 
1954.254761 141.0 
1979.72229 400.0 
END IONS

BEGIN IONS
TITLE=Scan Number: 137
PEPMASS=398.181
CHARGE=1+
MSLEVEL=2
FILENAME=G3_RG3_01_2949.mzXML
INSTRUMENT=ion trap
SCANS=137
SMILES=COC(=O)C1=C(C)C=C(OC2=C(C)C(=O)C(O)C(C)(OC)C2O)C(C)=C1O
INCHIKEY=BXZJZDQDHHZIIB-UHFFFAOYSA-N
75.504608 189.0 
77.037209 672.0 
77.553413 191.0 
78.041183 158.0 
78.974113 222.0 
78.991577 182.0 
79.010918 141.0 
79.053864 7961.0 
79.093391 167.0 
80.042809 156.0 
80.057198 390.0 
81.034599 147.0 
81.070496 2540.0 
83.012756 2241.0 
83.048729 391.0 
85.02877 142.0 
85.3964 212.0 
91.052299 780.0 
92.056931 154.0 
93.068291 346.0 
94.969482 211.0 
95.011421 204.0 
95.049248 3150.0 
96.051598 392.0 
97.028954 1381.0 
97.064308 1552.0 
98.18737 325.0 
99.044914 367.0 
101.082954 133.0 
101.12204 207.0 
103.057816 215.0 
105.043823 2411.0 
105.502808 102.0 
106.046761 538.0 
106.939514 221.0 
107.006424 200.0 
107.048782 20083.0 
107.102249 250.0 
107.574341 179.0 
108.052544 1577.0 
109.063988 3712.0 
111.004883 171.0 
111.041908 438.0 
111.080093 2062.0 
113.023666 587.0 
114.716835 134.0 
119.047562 402.0 
121.065231 405.0 
124.053246 210.0 
125.06015 7530.0 
125.138336 134.0 
126.067657 293.0 
127.074081 131.0 
130.570267 84.0 
130.890717 166.0 
133.104309 281.0 
134.069931 192.0 
135.043762 13441.0 
135.078766 319.0 
136.049835 737.0 
136.324905 92.0 
137.057907 1520.0 
138.067551 246.0 
139.00531 121.0 
139.027039 422.0 
139.075348 6685.0 
140.079865 425.0 
143.086517 283.0 
144.094955 194.0 
149.060471 361.0 
149.095367 157.0 
150.647293 128.0 
151.039902 400.0 
151.702499 104.0 
151.980057 161.0 
152.955612 90.0 
153.054489 40654.0 
154.057404 2112.0 
155.067734 571.0 
155.193298 187.0 
161.091583 240.0 
162.065903 421.0 
163.042404 222.0 
163.080688 159.0 
163.133926 173.0 
164.04657 584.0 
164.248001 80.0 
164.409927 113.0 
164.517471 93.0 
164.660477 174.0 
164.883972 90.0 
164.991608 411.0 
165.05481 95502.0 
165.249252 232.0 
165.332108 99.0 
166.057068 6688.0 
166.350784 120.0 
166.865677 130.0 
166.916519 171.0 
167.069839 3838.0 
168.073135 159.0 
168.112076 94.0 
168.425827 147.0 
169.064148 233.0 
172.079712 86.0 
173.122192 135.0 
174.668762 85.0 
177.051712 550.0 
178.061111 453.0 
179.034637 556.0 
179.070511 209.0 
181.079758 108.0 
181.456039 100.0 
183.067307 280.0 
183.084641 341.0 
184.091934 121.0 
185.081161 1772.0 
186.097488 476.0 
187.070587 81.0 
188.082306 100.0 
189.092804 996.0 
190.064697 138.0 
190.095154 256.0 
191.060547 131.0 
193.052765 187.0 
193.678116 98.0 
195.066895 180.0 
197.082809 2716.0 
198.082306 330.0 
199.110672 137.0 
200.081299 124.0 
200.112106 157.0 
202.101196 576.0 
202.171753 281.0 
203.064499 170.0 
203.108566 530.0 
205.044083 446.0 
205.086349 7239.0 
206.089508 1102.0 
206.130539 199.0 
207.091263 176.0 
209.055801 129.0 
209.127579 206.0 
212.085724 153.0 
213.037491 125.0 
214.092361 185.0 
215.06926 214.0 
215.107269 376.0 
215.280289 80.0 
216.082108 164.0 
217.087372 1122.0 
218.086563 141.0 
221.077194 366.0 
228.076218 106.0 
229.083527 165.0 
233.075806 302.0 
234.096115 109.0 
235.744751 193.0 
241.077637 149.0 
241.399841 181.0 
243.065262 581.0 
243.098145 2224.0 
244.100143 191.0 
245.061127 103.0 
245.116638 5383.0 
246.120789 867.0 
247.092331 105.0 
248.101624 155.0 
249.061142 119.0 
251.093323 124.0 
253.066772 108.0 
255.109329 376.0 
258.073578 196.0 
261.070251 525.0 
262.112488 141.0 
271.094666 3616.0 
272.105591 770.0 
272.409729 179.0 
273.112244 8177.0 
274.114502 1711.0 
284.066711 147.0 
287.125 143.0 
289.104828 1270.0 
290.104004 220.0 
299.088257 2051.0 
301.103546 187.0 
302.07782 157.0 
305.138336 2953.0 
306.143585 641.0 
315.074158 89.0 
317.102936 6105.0 
318.108917 599.0 
331.116516 564.0 
332.127625 145.0 
345.823883 94.0 
346.740814 117.0 
347.464478 101.0 
348.868042 210.0 
349.128662 9898.0 
349.290344 250.0 
349.390472 207.0 
350.130676 1661.0 
352.537323 138.0 
359.677734 119.0 
381.162842 113.0 
799.652161 84.0 
1491.037842 142.0 
1598.035767 99.0 
1647.737549 100.0 
1755.729614 262.0 
1792.976807 130.0 
1913.401733 303.0 
1917.877808 113.0 
1941.150513 252.0 
1990.576416 211.0 
END IONS

BEGIN IONS
TITLE=Scan Number: 138
PEPMASS=401.108
CHARGE=1+
MSLEVEL=2
FILENAME=G3_RG3_01_2949.mzXML
INSTRUMENT=ion trap
SCANS=138
SMILES=COC1=C(O[C@@H]2O[C@H](CO)[C@@H](O)[C@H](O)[C@H]2O)C(OC)=C3OC(=O)C=CC3=C1O
INCHIKEY=KDWWYRPEBULRGU-KIZWGXMFSA-N
72.505867 313.0 
104.989296 184.0 
106.317947 212.0 
109.809914 168.0 
119.012825 139.0 
121.068741 220.0 
122.036209 174.0 
133.024292 337.0 
150.029449 622.0 
162.35614 359.0 
163.026428 216.0 
178.026428 1051.0 
179.033432 315.0 
180.155762 133.0 
181.00705 123.0 
195.06015 143.0 
196.040741 304.0 
205.985138 203.0 
206.019547 5022.0 
206.491669 114.0 
207.018097 170.0 
209.005966 694.0 
224.031219 1427.0 
227.012405 142.0 
239.001953 257.0 
239.054398 12252.0 
240.056488 1327.0 
270.032196 202.0 
353.599457 187.0 
402.196777 218.0 
1726.861938 306.0 
END IONS

BEGIN IONS
TITLE=Scan Number: 139
PEPMASS=441.15399
CHARGE=1+
MSLEVEL=2
FILENAME=G3_RG3_01_2949.mzXML
INSTRUMENT=ion trap
SCANS=139
SMILES=COC1=C(C)C2=C(OC3=C(CO)C(O)=CC(\C(C)=C\C(O)=O)=C3C(=O)O2)C(=C1)C(\C)=C\C
INCHIKEY=NTOXIMPFEPXTTB-GNXRPPCSSA-N
77.03756 447.0 
79.05397 237.0 
82.26519 192.0 
86.448997 141.0 
86.699623 353.0 
87.274879 184.0 
88.082245 274.0 
91.053932 582.0 
92.055939 220.0 
96.05397 215.0 
103.053993 1488.0 
104.324699 187.0 
104.362915 215.0 
105.03093 368.0 
105.06781 1802.0 
106.040131 204.0 
106.074409 169.0 
107.049355 147.0 
113.060295 114.0 
114.392075 398.0 
115.053711 1161.0 
116.059288 875.0 
117.068863 459.0 
118.080002 377.0 
118.111839 243.0 
119.052734 151.0 
120.076447 183.0 
121.014008 157.0 
122.029465 151.0 
123.080368 158.0 
125.061676 405.0 
127.054596 219.0 
128.061981 3047.0 
129.068695 907.0 
129.383423 275.0 
130.07756 386.0 
131.048172 2301.0 
131.089447 632.0 
131.66716 278.0 
132.043762 233.0 
132.084335 213.0 
133.063705 737.0 
133.097565 185.0 
134.068314 186.0 
135.044022 454.0 
135.081421 487.0 
136.081406 134.0 
137.021835 238.0 
137.057877 123.0 
141.071213 822.0 
142.075287 330.0 
143.045288 192.0 
143.084656 1148.0 
144.083755 239.0 
145.061981 682.0 
145.098801 319.0 
146.07637 215.0 
146.463257 183.0 
146.524445 187.0 
147.044785 1788.0 
147.079666 919.0 
147.248795 99.0 
148.028122 112.0 
149.025742 140.0 
149.060867 655.0 
149.094498 172.0 
150.041473 173.0 
150.060471 223.0 
150.32991 260.0 
151.075195 482.0 
153.071442 345.0 
154.077621 392.0 
155.060364 1618.0 
155.090424 167.0 
157.062805 293.0 
158.072495 860.0 
158.195435 110.0 
159.009857 308.0 
159.043869 12252.0 
159.081207 2752.0 
159.116196 243.0 
159.922318 256.0 
160.003494 192.0 
160.04808 841.0 
160.085495 422.0 
161.024658 1363.0 
161.059189 8038.0 
161.092667 1475.0 
161.146439 132.0 
161.1875 141.0 
161.374023 70.0 
162.064529 259.0 
162.302567 170.0 
163.035233 142.0 
163.075104 155.0 
163.108856 309.0 
163.356354 244.0 
165.014328 108.0 
165.044312 206.0 
165.087631 394.0 
167.082382 174.0 
167.99852 259.0 
168.239655 253.0 
169.067078 148.0 
171.044998 1437.0 
171.089127 870.0 
172.049576 134.0 
172.089462 300.0 
173.059311 1097.0 
173.09938 228.0 
174.027664 154.0 
174.064484 277.0 
175.038589 474.0 
175.074448 1853.0 
176.038925 211.0 
176.081314 1167.0 
177.055603 1490.0 
177.082626 837.0 
178.650299 143.0 
179.031418 1525.0 
179.104263 362.0 
180.084244 293.0 
181.07753 228.0 
183.044601 163.0 
183.086166 302.0 
185.419617 144.0 
185.644821 292.0 
186.060135 226.0 
186.676605 121.0 
186.916687 240.0 
187.004166 163.0 
187.037811 3534.0 
187.073486 1347.0 
187.114441 156.0 
188.042358 761.0 
188.093155 204.0 
188.119888 641.0 
188.988098 158.0 
189.054138 15159.0 
189.089172 3534.0 
189.306793 120.0 
190.061554 1401.0 
190.096771 962.0 
190.336166 269.0 
191.022629 167.0 
191.051193 129.0 
191.073044 294.0 
191.107895 1395.0 
192.011795 134.0 
192.076447 142.0 
193.063919 302.0 
193.10527 493.0 
194.096176 280.0 
196.087112 128.0 
196.314117 269.0 
197.088287 258.0 
199.008423 251.0 
199.040756 532.0 
199.074295 566.0 
199.111343 156.0 
200.039429 187.0 
200.08345 380.0 
200.9953 181.0 
201.089844 364.0 
202.078995 648.0 
203.076263 1172.0 
203.10791 1005.0 
204.055984 95.0 
204.08577 222.0 
205.047562 519.0 
205.071136 448.0 
205.100021 142.0 
206.068954 622.0 
206.119827 189.0 
206.601654 198.0 
207.076096 375.0 
207.10614 262.0 
207.426788 248.0 
209.089722 135.0 
210.098007 251.0 
211.0728 201.0 
212.081268 130.0 
213.0578 191.0 
213.570831 167.0 
215.03125 1893.0 
215.107758 456.0 
216.041138 131.0 
216.096313 170.0 
217.084534 5728.0 
217.182175 68.0 
217.343124 81.0 
218.088455 498.0 
219.083527 665.0 
219.116669 558.0 
220.087128 1402.0 
220.119995 294.0 
220.609894 197.0 
221.036209 236.0 
221.089172 151.0 
221.3414 93.0 
222.103424 401.0 
223.009125 216.0 
223.072556 253.0 
223.112228 222.0 
224.057159 157.0 
224.119888 198.0 
225.050507 130.0 
225.086777 219.0 
226.079025 162.0 
227.065704 211.0 
227.101746 276.0 
227.994049 182.0 
228.082565 651.0 
229.103806 453.0 
230.069656 201.0 
230.09819 324.0 
231.077026 482.0 
231.114822 458.0 
232.084244 1064.0 
232.118546 404.0 
233.016479 186.0 
233.0448 1970.0 
233.092896 1837.0 
233.136292 307.0 
234.068375 644.0 
234.102859 881.0 
234.63385 78.0 
235.071075 436.0 
235.108093 946.0 
236.079239 559.0 
236.112671 156.0 
237.086578 386.0 
237.135468 195.0 
238.049454 194.0 
238.088165 148.0 
239.024902 117.0 
239.081238 451.0 
241.049316 136.0 
241.090408 394.0 
242.054672 102.0 
243.069122 984.0 
243.105179 1112.0 
243.567429 328.0 
244.09671 274.0 
245.095047 1091.0 
245.13028 168.0 
246.041702 123.0 
246.069138 159.0 
246.103851 1380.0 
246.142715 252.0 
246.79599 96.0 
247.078415 610.0 
247.113098 3095.0 
247.940842 303.0 
248.080063 1465.0 
248.118347 495.0 
249.084671 575.0 
249.124573 351.0 
249.814285 89.0 
249.888351 290.0 
250.054977 123.0 
250.100143 752.0 
251.054306 83.0 
251.104294 538.0 
252.083771 460.0 
253.043106 321.0 
254.04863 377.0 
254.370422 110.0 
255.079941 113.0 
255.111557 404.0 
255.707413 152.0 
256.085846 308.0 
256.171967 132.0 
257.126251 558.0 
258.074585 551.0 
258.101105 1018.0 
259.074615 453.0 
259.108917 3095.0 
260.080322 1104.0 
260.120514 677.0 
261.053284 116.0 
261.091064 1740.0 
261.123138 716.0 
261.558319 353.0 
262.097931 863.0 
262.128784 237.0 
263.066345 249.0 
263.102112 1177.0 
263.137024 470.0 
263.996826 131.0 
264.080261 1155.0 
265.089294 766.0 
266.073059 160.0 
266.130371 141.0 
269.100555 1042.0 
270.099762 962.0 
271.075043 544.0 
271.181274 143.0 
271.294525 163.0 
272.076782 1013.0 
272.114716 527.0 
273.088501 1857.0 
273.133484 826.0 
274.065125 177.0 
274.098175 484.0 
274.137146 531.0 
274.375031 92.0 
275.038544 202.0 
275.070496 788.0 
275.106079 5067.0 
275.1474 893.0 
276.006042 334.0 
276.041626 435.0 
276.07608 666.0 
276.112305 1523.0 
276.305969 161.0 
276.354248 124.0 
276.702637 98.0 
277.085968 1979.0 
277.157898 107.0 
278.0896 566.0 
278.124634 363.0 
278.495483 141.0 
279.032776 234.0 
279.098358 1178.0 
279.132416 379.0 
280.073303 1692.0 
280.103302 858.0 
281.068604 205.0 
281.140991 234.0 
282.106781 175.0 
283.103882 351.0 
284.081329 168.0 
284.463776 171.0 
285.088409 491.0 
285.124054 161.0 
286.098419 2582.0 
287.106201 4386.0 
287.148712 256.0 
287.472504 163.0 
287.827057 120.0 
288.071747 1442.0 
288.110443 1694.0 
288.518311 254.0 
288.604584 86.0 
288.674744 157.0 
289.082306 2886.0 
289.1315 720.0 
289.665497 87.0 
290.094055 2322.0 
290.131317 2715.0 
291.060364 421.0 
291.099091 2160.0 
291.13678 1088.0 
292.06723 430.0 
292.106873 1050.0 
292.538086 254.0 
292.809937 144.0 
293.079834 785.0 
293.117584 395.0 
294.086487 161.0 
294.166107 187.0 
295.102661 696.0 
296.058502 113.0 
296.092255 184.0 
298.135162 192.0 
299.108917 766.0 
300.063629 160.0 
300.111267 445.0 
301.081055 1534.0 
301.121796 2654.0 
301.609009 95.0 
302.005341 166.0 
302.095825 1719.0 
302.128204 1233.0 
302.325989 249.0 
302.944611 114.0 
303.100555 7356.0 
304.00769 100.0 
304.070862 1428.0 
304.107635 4656.0 
305.076416 1410.0 
305.112671 1947.0 
305.151306 2552.0 
306.087555 500.0 
306.121979 939.0 
306.151733 668.0 
307.06131 204.0 
307.098541 1311.0 
307.130615 671.0 
308.066895 680.0 
308.158478 280.0 
308.350494 114.0 
309.074585 149.0 
309.109406 612.0 
310.086914 298.0 
313.080444 164.0 
314.092804 310.0 
315.030762 160.0 
315.094879 677.0 
315.131592 340.0 
315.600922 212.0 
315.786743 103.0 
316.079956 1009.0 
316.104462 1228.0 
316.807617 186.0 
316.895844 279.0 
317.073578 775.0 
317.118042 3729.0 
318.086731 1380.0 
318.123322 5279.0 
319.028168 211.0 
319.05661 422.0 
319.096924 6642.0 
320.06192 365.0 
320.103455 1410.0 
321.0672 150.0 
321.108002 1752.0 
321.146973 1235.0 
321.592773 140.0 
322.079651 595.0 
322.111725 388.0 
322.387085 110.0 
323.093719 2538.0 
323.159088 230.0 
324.074005 433.0 
325.106628 213.0 
325.352142 175.0 
328.112915 594.0 
328.20697 175.0 
329.081085 1056.0 
329.118347 1064.0 
329.64679 208.0 
330.077148 155.0 
330.121185 1078.0 
330.589966 132.0 
331.048767 723.0 
331.091248 3637.0 
331.131195 1513.0 
331.399353 70.0 
332.030426 138.0 
332.100281 2646.0 
332.138763 288.0 
332.986237 163.0 
333.015015 155.0 
333.045593 348.0 
333.11377 2268.0 
333.148773 5252.0 
333.379517 98.0 
334.119537 1070.0 
334.153107 1098.0 
334.311157 176.0 
335.128723 761.0 
335.218048 82.0 
335.263 90.0 
335.514526 133.0 
336.099976 136.0 
336.436737 102.0 
339.088104 405.0 
341.212799 353.0 
342.117676 156.0 
343.129669 745.0 
344.035522 179.0 
344.107544 3408.0 
344.542572 269.0 
345.109497 2807.0 
346.047333 169.0 
346.115509 2572.0 
347.042084 149.0 
347.086792 1126.0 
347.125458 415.0 
347.553314 116.0 
348.090607 567.0 
349.100006 544.0 
349.142853 4003.0 
349.918243 112.0 
350.082092 175.0 
350.142517 369.0 
350.813202 206.0 
351.074432 133.0 
351.128174 245.0 
352.062042 68.0 
352.13504 158.0 
353.585846 97.0 
357.122498 172.0 
358.05899 161.0 
358.123138 230.0 
359.129974 1687.0 
359.79248 78.0 
360.130341 330.0 
361.040436 94.0 
361.071503 200.0 
361.143433 18299.0 
361.900787 150.0 
362.003784 156.0 
362.114838 1334.0 
362.144104 3359.0 
363.054443 113.0 
363.08255 202.0 
363.117737 635.0 
364.143646 216.0 
364.779968 75.0 
365.863281 82.0 
366.057037 88.0 
366.118195 199.0 
367.126617 281.0 
369.115234 145.0 
370.06311 256.0 
370.417358 270.0 
372.065918 163.0 
373.096954 333.0 
374.11441 76.0 
375.055908 121.0 
375.08783 421.0 
375.69397 95.0 
376.832855 215.0 
376.997406 461.0 
377.138 36472.0 
377.496368 282.0 
377.770752 72.0 
378.072906 143.0 
378.142487 8351.0 
379.093536 206.0 
379.15506 915.0 
379.997314 140.0 
380.167145 326.0 
380.214691 111.0 
380.487 136.0 
380.69635 113.0 
382.590424 217.0 
387.124451 1308.0 
388.135529 231.0 
389.131714 166.0 
389.521851 293.0 
391.324585 111.0 
395.134979 328.0 
402.385223 71.0 
404.085052 158.0 
405.069702 491.0 
405.133087 25375.0 
405.65213 118.0 
406.085541 81.0 
406.138062 5123.0 
408.332642 81.0 
409.121399 100.0 
423.14502 10730.0 
424.106384 172.0 
424.147675 1008.0 
425.660217 137.0 
426.761108 99.0 
501.33783 97.0 
523.770386 220.0 
705.002625 98.0 
1369.791992 229.0 
1383.181274 177.0 
1615.975342 161.0 
1813.526123 190.0 
1883.310425 187.0 
1919.2052 109.0 
END IONS

BEGIN IONS
TITLE=Scan Number: 141
PEPMASS=458.181
CHARGE=1+
MSLEVEL=2
FILENAME=G3_RG3_01_2949.mzXML
INSTRUMENT=ion trap
SCANS=141
SMILES=COC1=C(C)C2=C(OC3=C(CO)C(O)=CC(\C(C)=C\C(O)=O)=C3C(=O)O2)C(=C1)C(\C)=C\C
INCHIKEY=NTOXIMPFEPXTTB-GNXRPPCSSA-N
72.841988 326.0 
79.052361 195.0 
81.852776 225.0 
86.638809 130.0 
91.054688 620.0 
93.068916 200.0 
93.667816 141.0 
95.139854 262.0 
100.928314 163.0 
103.053574 227.0 
105.036049 551.0 
105.068787 425.0 
107.010147 156.0 
107.045341 228.0 
107.078484 95.0 
115.055168 1139.0 
116.061668 401.0 
117.070824 406.0 
119.049187 307.0 
123.077477 226.0 
125.061562 293.0 
127.109322 99.0 
128.060303 752.0 
129.067017 764.0 
130.999359 189.0 
131.047836 1279.0 
131.084061 353.0 
132.049271 183.0 
132.090408 251.0 
134.303177 126.0 
135.796127 119.0 
136.08226 125.0 
137.057755 146.0 
139.075577 157.0 
139.853851 223.0 
141.070938 737.0 
141.491318 227.0 
142.073715 199.0 
143.047256 254.0 
143.084732 1296.0 
144.055008 174.0 
144.08078 172.0 
145.065796 1175.0 
145.100983 173.0 
146.066605 241.0 
146.556305 106.0 
147.045746 729.0 
147.077042 320.0 
148.052368 227.0 
149.055603 423.0 
151.075546 279.0 
155.060333 189.0 
156.056091 309.0 
157.066269 162.0 
158.074677 764.0 
158.994736 163.0 
159.044495 3381.0 
159.077255 1653.0 
159.358566 86.0 
160.08049 147.0 
160.997574 142.0 
161.020889 878.0 
161.062531 1322.0 
161.092041 177.0 
162.065399 626.0 
162.095596 174.0 
163.073135 158.0 
163.113403 349.0 
164.087418 261.0 
165.048447 136.0 
166.070633 156.0 
169.070724 167.0 
170.068375 208.0 
171.045151 282.0 
171.095215 231.0 
171.883804 234.0 
173.051376 462.0 
173.095428 669.0 
174.069931 791.0 
174.096756 332.0 
175.014969 241.0 
175.040924 372.0 
175.072006 1477.0 
175.479507 121.0 
176.08017 762.0 
177.088211 565.0 
178.075043 215.0 
179.033005 762.0 
179.085358 192.0 
181.064911 194.0 
182.103516 146.0 
185.056961 112.0 
185.091507 177.0 
186.066071 351.0 
187.038498 2264.0 
187.079086 913.0 
188.046936 229.0 
188.116562 227.0 
189.054871 5929.0 
189.090149 2251.0 
190.055984 306.0 
190.094406 875.0 
191.079391 320.0 
191.109818 613.0 
192.106003 577.0 
193.098679 255.0 
195.075821 145.0 
195.101166 129.0 
197.095871 338.0 
198.069794 164.0 
198.398148 157.0 
199.036255 777.0 
199.073212 583.0 
199.443924 85.0 
200.043472 118.0 
201.051971 262.0 
201.085617 464.0 
202.056137 124.0 
203.075546 440.0 
203.104782 331.0 
204.083908 224.0 
204.109894 633.0 
205.054306 694.0 
205.093185 1026.0 
205.878647 316.0 
206.063019 396.0 
206.103058 177.0 
207.028961 202.0 
207.093521 284.0 
208.113632 117.0 
211.074371 147.0 
211.283737 105.0 
214.129181 161.0 
215.034286 897.0 
215.070328 489.0 
215.106674 378.0 
216.03801 150.0 
216.108948 182.0 
216.787399 174.0 
217.083145 2835.0 
218.092407 432.0 
218.117126 473.0 
219.112137 185.0 
221.042419 549.0 
221.086945 126.0 
223.110016 473.0 
223.426697 167.0 
227.002228 151.0 
227.032501 108.0 
227.074265 180.0 
228.097015 101.0 
229.047104 170.0 
229.097183 685.0 
231.065308 203.0 
231.114319 691.0 
232.086868 300.0 
233.042374 2008.0 
233.101349 492.0 
233.597382 120.0 
235.118973 394.0 
236.048996 80.0 
236.082809 389.0 
237.050369 184.0 
237.135284 113.0 
238.102142 295.0 
239.123337 218.0 
240.078827 337.0 
241.051102 165.0 
241.114594 168.0 
242.125381 261.0 
243.068237 353.0 
243.098129 661.0 
244.088135 148.0 
245.060837 222.0 
245.096222 1062.0 
245.140945 230.0 
245.986069 162.0 
246.138794 332.0 
246.980972 312.0 
247.069641 409.0 
247.111969 1476.0 
248.078186 547.0 
248.121277 344.0 
249.090607 351.0 
249.128235 153.0 
250.099792 582.0 
251.053238 580.0 
251.105667 770.0 
252.043777 189.0 
252.067795 192.0 
253.087158 187.0 
254.111359 309.0 
255.117889 731.0 
255.75238 254.0 
257.060242 98.0 
257.097595 285.0 
258.10141 732.0 
258.396698 76.0 
259.026367 199.0 
259.079834 710.0 
259.109619 1085.0 
260.079071 738.0 
260.110657 511.0 
260.144623 199.0 
261.089996 1064.0 
261.120331 534.0 
262.095398 1225.0 
262.139404 266.0 
263.060089 158.0 
263.101318 1040.0 
263.137573 429.0 
264.079254 276.0 
264.110565 172.0 
264.144958 263.0 
265.091095 510.0 
265.124329 332.0 
266.091217 161.0 
269.093994 97.0 
270.095459 183.0 
271.078613 175.0 
271.113251 243.0 
272.077576 283.0 
272.126129 428.0 
273.086548 580.0 
273.128204 230.0 
274.053741 141.0 
274.104218 425.0 
274.903931 120.0 
275.065582 406.0 
275.105133 2719.0 
276.078522 426.0 
276.109772 665.0 
277.085938 639.0 
277.156311 192.0 
278.09082 325.0 
278.131195 297.0 
279.099274 1104.0 
279.137604 474.0 
280.06958 626.0 
280.100677 208.0 
281.117859 179.0 
282.506042 261.0 
283.107574 248.0 
284.044495 138.0 
285.089142 250.0 
285.136353 153.0 
286.048218 140.0 
286.093628 466.0 
286.766266 322.0 
287.106628 2256.0 
288.106293 794.0 
289.08551 1469.0 
289.117218 782.0 
290.038086 160.0 
290.087799 464.0 
290.129303 2701.0 
291.063873 460.0 
291.100983 1620.0 
291.136444 349.0 
292.067078 104.0 
292.102478 126.0 
292.192566 248.0 
293.083099 442.0 
293.117981 187.0 
294.087494 252.0 
295.063843 114.0 
295.094482 585.0 
296.110321 124.0 
297.08609 139.0 
298.094727 219.0 
299.09436 567.0 
300.103302 838.0 
301.004944 144.0 
301.088409 727.0 
301.124756 2164.0 
302.129242 1212.0 
303.100311 4994.0 
304.077332 860.0 
304.107605 2326.0 
305.086914 780.0 
305.157898 1198.0 
306.089844 261.0 
306.155731 934.0 
306.297211 219.0 
307.096069 1488.0 
308.063843 86.0 
308.095367 142.0 
309.086731 267.0 
310.088898 133.0 
312.111969 104.0 
313.08847 155.0 
314.071991 434.0 
315.10199 1344.0 
315.132721 615.0 
316.104401 883.0 
317.034607 137.0 
317.115265 1305.0 
317.639465 213.0 
318.084747 1219.0 
318.122284 1983.0 
319.056671 134.0 
319.096832 3999.0 
319.19104 166.0 
320.097992 765.0 
321.108917 462.0 
321.162567 339.0 
321.441254 82.0 
322.078613 195.0 
322.137268 229.0 
323.092957 1231.0 
324.097992 785.0 
327.106384 107.0 
327.352753 86.0 
328.022278 169.0 
328.114166 736.0 
329.070465 390.0 
329.112885 421.0 
330.044281 142.0 
330.115814 797.0 
330.970276 115.0 
331.093506 2247.0 
332.102875 2060.0 
333.069702 284.0 
333.148529 5004.0 
334.142273 1484.0 
335.121979 628.0 
335.167328 139.0 
336.095367 98.0 
337.106171 469.0 
338.107147 162.0 
339.081146 136.0 
342.13089 146.0 
343.093018 142.0 
343.136261 318.0 
344.102722 2492.0 
345.110443 1346.0 
346.070984 376.0 
346.118103 2479.0 
347.091125 549.0 
347.126251 602.0 
348.116669 300.0 
349.109711 691.0 
349.144806 2141.0 
350.138733 730.0 
352.138916 189.0 
359.126831 787.0 
361.025574 123.0 
361.06958 455.0 
361.142212 17168.0 
361.260529 290.0 
361.306122 201.0 
362.114441 1069.0 
362.144318 1934.0 
362.256744 102.0 
363.108093 164.0 
365.131989 107.0 
366.108368 272.0 
367.115509 227.0 
369.105133 125.0 
372.092194 195.0 
373.068817 99.0 
374.095428 100.0 
374.130951 247.0 
376.098663 267.0 
377.138062 27007.0 
377.493134 90.0 
378.140076 4373.0 
379.14682 1606.0 
380.114655 150.0 
380.462067 122.0 
380.658112 128.0 
384.113495 84.0 
387.124542 571.0 
388.137665 164.0 
390.106171 296.0 
391.1008 94.0 
393.135406 114.0 
395.094788 180.0 
395.147339 155.0 
405.06488 385.0 
405.132996 31272.0 
406.136719 7671.0 
408.468811 111.0 
411.135895 106.0 
414.147308 97.0 
423.066956 203.0 
423.142334 11564.0 
424.144897 2449.0 
425.137329 120.0 
425.683319 120.0 
426.002747 91.0 
441.050629 103.0 
441.140228 166.0 
443.144836 154.0 
458.129486 257.0 
1518.906494 104.0 
END IONS

BEGIN IONS
TITLE=Scan Number: 142
PEPMASS=479.10999
CHARGE=1+
MSLEVEL=2
FILENAME=G3_RG3_01_2949.mzXML
INSTRUMENT=ion trap
SCANS=142
SMILES=COC1=C(C)C2=C(OC3=C(CO)C(O)=CC(\C(C)=C\C(O)=O)=C3C(=O)O2)C(=C1)C(\C)=C\C
INCHIKEY=NTOXIMPFEPXTTB-GNXRPPCSSA-N
73.894508 260.0 
78.345123 230.0 
79.014336 1212.0 
85.027184 311.0 
88.171295 252.0 
90.693054 170.0 
94.040672 765.0 
94.77993 225.0 
97.027527 209.0 
99.007179 182.0 
105.041595 126.0 
121.082024 268.0 
122.034584 1066.0 
126.028198 178.0 
129.154617 264.0 
132.988739 84.0 
134.033264 857.0 
135.035263 109.0 
136.01561 156.0 
138.411224 160.0 
141.05687 248.0 
149.992142 190.0 
150.03006 1425.0 
151.036819 341.0 
153.020248 212.0 
168.040176 229.0 
175.811111 206.0 
178.023819 2804.0 
178.242859 126.0 
178.893219 197.0 
179.032669 1869.0 
180.032578 344.0 
181.011887 184.0 
183.069595 358.0 
193.043045 591.0 
194.019531 291.0 
195.030624 144.0 
196.033401 553.0 
197.014572 174.0 
199.734253 244.0 
202.638992 122.0 
206.02005 40588.0 
206.14917 143.0 
207.021835 4449.0 
208.024765 491.0 
208.636398 112.0 
208.696213 138.0 
209.005875 1449.0 
211.008133 134.0 
211.059036 480.0 
212.056915 167.0 
215.781174 259.0 
223.023315 384.0 
223.399567 177.0 
223.989792 503.0 
224.030685 20388.0 
225.032532 1851.0 
227.019699 546.0 
228.343979 166.0 
237.037109 154.0 
237.199875 197.0 
237.498901 173.0 
238.1604 151.0 
238.288803 280.0 
238.500122 183.0 
238.5616 150.0 
238.597504 215.0 
238.671738 135.0 
238.758011 137.0 
238.793869 191.0 
238.931168 355.0 
238.974396 369.0 
239.053162 135216.0 
239.183182 188.0 
239.2323 312.0 
239.37854 194.0 
240.011047 98.0 
240.056961 13264.0 
240.285141 97.0 
240.328751 85.0 
240.720428 136.0 
241.022446 141.0 
241.056839 341.0 
241.616714 119.0 
241.682037 86.0 
241.73584 148.0 
250.223846 102.0 
251.052979 173.0 
257.064514 154.0 
266.676544 237.0 
351.236176 186.0 
352.49231 257.0 
353.561188 218.0 
361.0849 191.0 
401.105133 7921.0 
402.105621 632.0 
404.284119 104.0 
1737.774048 183.0 
END IONS

BEGIN IONS
TITLE=Scan Number: 144
PEPMASS=484.254
CHARGE=1+
MSLEVEL=2
FILENAME=G3_RG3_01_2949.mzXML
INSTRUMENT=ion trap
SCANS=144
SMILES=CC(C)=CCC1=CC(O[C@@H]2O[C@H](CO)[C@@H](O)[C@H](O)[C@H]2O)=CC(CC=C(C)C)=C1C(O)C(O)=O
INCHIKEY=NKNHYXCDCIOHRT-CWAIYLBLSA-N
74.667877 292.0 
81.035248 277.0 
81.06884 192.0 
85.027618 2398.0 
86.029785 195.0 
87.043556 197.0 
89.263771 153.0 
91.036346 154.0 
91.053322 338.0 
92.958939 126.0 
93.033974 124.0 
95.083786 182.0 
96.050087 120.0 
97.028084 1214.0 
102.059334 160.0 
103.034119 127.0 
104.069427 218.0 
105.069313 503.0 
106.503342 204.0 
107.087036 458.0 
109.025467 592.0 
109.0634 199.0 
115.03717 110.0 
115.054878 170.0 
115.319534 169.0 
117.069878 432.0 
117.208084 222.0 
118.063263 148.0 
119.048027 2367.0 
119.085274 467.0 
120.047745 280.0 
121.064224 179.0 
121.097252 204.0 
122.072319 129.0 
123.034737 110.0 
127.039795 1080.0 
127.07386 252.0 
128.06073 428.0 
129.067123 1674.0 
131.083237 1135.0 
133.065186 223.0 
133.099213 161.0 
134.105042 209.0 
135.04274 290.0 
135.076096 385.0 
135.116196 146.0 
136.151962 222.0 
137.059097 233.0 
140.195938 164.0 
141.977921 202.0 
142.076569 1629.0 
143.050293 129.0 
143.082687 1832.0 
143.328186 149.0 
143.772919 97.0 
143.977127 299.0 
144.094254 502.0 
145.062592 1621.0 
145.100159 1368.0 
146.056427 473.0 
147.041275 2128.0 
147.111771 393.0 
147.903259 122.0 
148.054642 230.0 
149.061417 416.0 
151.026962 173.0 
152.061447 327.0 
153.06839 182.0 
154.07518 869.0 
155.029114 206.0 
155.532288 124.0 
156.089783 947.0 
157.06311 1902.0 
157.101456 4239.0 
158.070023 97.0 
158.102615 812.0 
159.046432 183.0 
159.076889 2207.0 
159.116898 908.0 
159.482727 124.0 
160.088608 494.0 
160.12085 204.0 
160.518799 353.0 
161.059143 1855.0 
161.097565 958.0 
162.030075 418.0 
163.035309 167.0 
163.060242 314.0 
164.457962 170.0 
165.053345 2211.0 
166.05957 171.0 
166.081848 162.0 
167.08783 625.0 
168.090851 169.0 
169.07193 299.0 
169.101837 670.0 
170.072968 494.0 
171.039505 150.0 
171.079742 3299.0 
171.118179 710.0 
171.225708 99.0 
171.480835 266.0 
171.900299 192.0 
172.042999 356.0 
172.087631 572.0 
173.059814 965.0 
173.093658 4203.0 
173.133347 359.0 
174.065765 103.0 
174.098511 448.0 
175.038635 3171.0 
175.076569 898.0 
175.114532 377.0 
175.501892 100.0 
176.113663 144.0 
177.056961 435.0 
177.350281 142.0 
178.091141 112.0 
179.039505 189.0 
179.081406 299.0 
180.091537 531.0 
181.066803 332.0 
181.100937 592.0 
182.106522 105.0 
182.356995 272.0 
183.085159 815.0 
183.117142 1606.0 
184.116425 117.0 
185.052078 636.0 
185.094925 7054.0 
185.137695 271.0 
186.066544 346.0 
186.099075 860.0 
187.080994 359.0 
187.110611 2079.0 
188.075333 557.0 
188.11496 231.0 
189.056366 1459.0 
189.091843 2095.0 
190.059891 728.0 
191.06633 297.0 
191.110611 395.0 
192.090897 119.0 
193.01033 391.0 
193.0495 1848.0 
193.099167 236.0 
194.071365 406.0 
194.107529 524.0 
195.052017 365.0 
195.073212 862.0 
195.116501 127.0 
196.307373 105.0 
197.059601 170.0 
197.093155 799.0 
198.067581 171.0 
199.077316 1489.0 
199.108475 1868.0 
200.081879 1382.0 
201.057358 143.0 
201.091461 849.0 
201.129715 1277.0 
202.058044 485.0 
202.096985 111.0 
202.140976 127.0 
203.069031 529.0 
203.10434 1754.0 
203.209198 139.0 
204.121521 520.0 
205.048401 195.0 
207.060303 529.0 
208.090439 391.0 
208.121979 386.0 
209.061615 165.0 
209.093918 767.0 
210.140823 411.0 
211.076553 154.0 
211.110779 1675.0 
211.143829 253.0 
211.172318 212.0 
212.087311 207.0 
212.114807 613.0 
213.001846 216.0 
213.090897 4417.0 
213.127899 494.0 
213.159256 454.0 
214.137558 144.0 
215.07103 562.0 
215.100739 299.0 
217.086121 4597.0 
218.044998 157.0 
218.092468 2934.0 
218.129059 137.0 
219.068878 386.0 
219.100433 2744.0 
220.106186 775.0 
221.098206 126.0 
222.103592 175.0 
223.11113 329.0 
223.149124 1339.0 
225.087341 264.0 
226.095795 131.0 
226.147842 194.0 
227.07077 121.0 
227.104401 196.0 
227.146469 159.0 
228.152847 151.0 
229.120346 2130.0 
230.118683 149.0 
231.060532 135.0 
231.101151 11266.0 
232.104233 1402.0 
233.077637 306.0 
233.112289 914.0 
234.098206 151.0 
235.141464 185.0 
236.056107 193.0 
236.143677 197.0 
237.124146 130.0 
238.648392 196.0 
239.110779 177.0 
240.807678 234.0 
241.117996 163.0 
241.158066 5991.0 
242.033249 247.0 
242.16806 700.0 
243.103333 574.0 
243.167191 333.0 
243.291336 194.0 
244.106812 175.0 
245.047684 123.0 
245.082947 126.0 
245.11351 1389.0 
246.093582 173.0 
246.116791 392.0 
248.800125 98.0 
249.112274 3976.0 
250.10704 302.0 
251.117279 93.0 
251.143967 600.0 
253.149857 210.0 
255.109909 150.0 
257.076416 152.0 
257.119476 509.0 
258.105743 146.0 
259.060089 304.0 
259.169312 698.0 
260.174103 204.0 
260.506805 149.0 
261.108704 870.0 
263.107025 196.0 
267.103607 320.0 
268.065674 146.0 
269.076111 96.0 
269.114532 149.0 
269.151428 1018.0 
270.153687 284.0 
273.107819 503.0 
273.40567 129.0 
275.101013 161.0 
276.148651 125.0 
284.139496 146.0 
285.108246 129.0 
285.146576 173.0 
285.669067 119.0 
285.818756 122.0 
286.180908 94.0 
286.409149 95.0 
286.988037 120.0 
287.08017 162.0 
287.164307 80945.0 
287.245941 114.0 
287.484222 95.0 
287.597137 136.0 
288.06311 124.0 
288.108154 132.0 
288.166443 12113.0 
288.501343 151.0 
288.634949 140.0 
289.0849 79.0 
289.163574 432.0 
289.94809 99.0 
291.119568 582.0 
297.116486 288.0 
299.163177 409.0 
299.259491 139.0 
301.182373 198.0 
303.12326 815.0 
304.103638 175.0 
305.144623 140.0 
306.178253 148.0 
307.139923 223.0 
311.119537 611.0 
311.163147 554.0 
315.116821 243.0 
316.121704 131.0 
319.102325 91.0 
319.14505 163.0 
320.167297 143.0 
321.105865 210.0 
322.204926 136.0 
327.121521 152.0 
329.571564 87.0 
339.08432 238.0 
339.192444 273.0 
340.121582 287.0 
341.172577 192.0 
349.499329 248.0 
353.17511 383.0 
357.134766 233.0 
364.62912 149.0 
375.146698 763.0 
378.17038 109.0 
385.198029 139.0 
393.155975 873.0 
411.086853 191.0 
411.159027 615.0 
412.164886 123.0 
431.206512 270.0 
449.128235 120.0 
449.217712 969.0 
484.176727 142.0 
484.26236 486.0 
485.254059 403.0 
549.60144 269.0 
1588.042236 173.0 
1927.135132 84.0 
1979.503784 159.0 
END IONS

BEGIN IONS
TITLE=Scan Number: 145
PEPMASS=523.23199
CHARGE=1+
MSLEVEL=2
FILENAME=G3_RG3_01_2949.mzXML
INSTRUMENT=ion trap
SCANS=145
SMILES=COC(=O)C2(CC1=CC=C(O)C(CC=C(C)C)=C1)OC(=O)C(OC)=C2C3=CC(O)=C(O)C(CC=C(C)C)=C3
INCHIKEY=LARSXHUKWMVHRB-UHFFFAOYSA-N
70.070465 88.0 
81.228081 229.0 
83.015556 266.0 
91.05442 1578.0 
94.003326 243.0 
96.054321 99.0 
99.079758 206.0 
103.887932 188.0 
104.06356 277.0 
105.070923 1005.0 
109.062607 193.0 
110.987892 283.0 
115.054932 585.0 
115.405388 154.0 
116.778595 157.0 
117.070023 424.0 
119.048607 5496.0 
119.08519 524.0 
120.054108 922.0 
121.064728 3011.0 
122.067551 313.0 
123.046249 110.0 
124.999077 168.0 
129.069199 625.0 
131.0858 127.0 
131.169846 252.0 
133.01123 127.0 
133.063873 12487.0 
133.1008 617.0 
134.06691 951.0 
135.035339 149.0 
135.079056 218.0 
136.322617 185.0 
137.058319 3254.0 
138.061356 155.0 
141.946548 211.0 
142.076187 1146.0 
143.084595 130.0 
145.103378 510.0 
145.418259 79.0 
146.059601 151.0 
146.103378 215.0 
147.04274 103.0 
147.078064 713.0 
147.114532 205.0 
148.082321 151.0 
148.117126 144.0 
149.056335 285.0 
151.107437 165.0 
151.579514 186.0 
154.912216 170.0 
155.085236 138.0 
156.086563 269.0 
157.100601 11547.0 
157.368347 73.0 
158.007233 170.0 
158.054214 128.0 
158.103165 548.0 
159.07605 223.0 
159.167419 104.0 
160.088531 1623.0 
161.054733 397.0 
161.088409 125.0 
171.044601 335.0 
172.090149 319.0 
172.770004 94.0 
173.06041 496.0 
173.098068 859.0 
174.097229 421.0 
174.164291 122.0 
174.225037 119.0 
174.565079 252.0 
174.973373 103.0 
174.994415 225.0 
175.042938 318.0 
175.110886 117259.0 
175.156433 399.0 
175.233887 91.0 
175.28743 92.0 
175.458664 97.0 
175.954575 272.0 
176.11441 9072.0 
176.158829 92.0 
176.398849 89.0 
176.908752 80.0 
177.11441 199.0 
177.266052 140.0 
177.460327 169.0 
177.534119 131.0 
186.025238 164.0 
188.800949 122.0 
189.094879 513.0 
190.026718 329.0 
191.073181 450.0 
192.108963 186.0 
193.77002 171.0 
194.085403 201.0 
195.085861 107.0 
203.139984 217.0 
204.04155 235.0 
204.06987 155.0 
204.919678 95.0 
205.056366 192.0 
205.080658 334.0 
205.121933 284.0 
206.077347 142.0 
207.476639 159.0 
209.050095 98.0 
213.093094 102.0 
214.027191 476.0 
217.048431 497.0 
217.084 436.0 
218.05101 193.0 
219.079483 609.0 
220.088318 175.0 
221.082748 308.0 
224.088623 133.0 
224.347565 209.0 
225.086349 320.0 
227.06308 240.0 
228.08194 166.0 
229.047226 320.0 
230.053818 234.0 
230.108963 135.0 
231.026779 117.0 
233.097137 161.0 
235.072144 221.0 
235.597839 84.0 
236.767746 100.0 
239.066147 227.0 
241.049255 157.0 
242.049683 103.0 
243.190872 132.0 
243.716599 149.0 
244.034698 138.0 
245.745255 76.0 
248.075226 366.0 
249.058456 165.0 
249.092606 321.0 
250.082565 164.0 
253.084625 170.0 
253.126175 151.0 
255.064941 177.0 
257.056061 157.0 
257.090118 229.0 
257.12027 128.0 
258.109772 77.0 
260.054626 156.0 
261.07077 1020.0 
261.138977 274.0 
262.03067 114.0 
262.063354 593.0 
262.094299 168.0 
263.029755 126.0 
263.068817 1176.0 
263.111023 262.0 
264.068176 193.0 
268.086182 189.0 
268.114929 176.0 
270.096222 196.0 
272.084106 188.0 
273.040497 385.0 
273.099701 298.0 
274.069916 143.0 
274.118103 101.0 
275.068634 1035.0 
275.105194 465.0 
275.137695 103.0 
276.05954 141.0 
276.095673 388.0 
276.74588 315.0 
277.0737 132.0 
278.093658 975.0 
278.973541 149.0 
279.063751 859.0 
279.101013 245.0 
280.074707 131.0 
282.101929 112.0 
283.112518 441.0 
285.059814 212.0 
285.084442 274.0 
285.114838 460.0 
286.088135 425.0 
287.071381 113.0 
288.068756 186.0 
289.005524 143.0 
289.083099 1021.0 
289.142395 721.0 
290.058594 481.0 
291.064728 2170.0 
291.136932 180.0 
292.061737 528.0 
293.061676 744.0 
294.079865 108.0 
295.093842 657.0 
296.070099 144.0 
296.441498 269.0 
297.104797 265.0 
299.103119 213.0 
300.054993 168.0 
300.099915 95.0 
301.047668 160.0 
301.086334 133.0 
301.11319 1208.0 
302.113129 164.0 
303.063141 624.0 
303.128784 317.0 
303.634644 210.0 
304.075104 513.0 
304.138397 89.0 
305.082153 137.0 
306.048645 355.0 
306.086243 373.0 
306.936371 138.0 
307.062317 347.0 
307.093872 1493.0 
307.132904 98.0 
308.099152 752.0 
310.073029 159.0 
311.095673 367.0 
312.093964 251.0 
313.132904 364.0 
314.05246 164.0 
314.105743 320.0 
315.088196 1888.0 
316.09137 330.0 
316.314514 198.0 
317.063538 484.0 
317.141632 2472.0 
318.04599 225.0 
318.141022 253.0 
319.016235 78.0 
319.063538 535.0 
319.129822 469.0 
320.051758 294.0 
320.140076 463.0 
321.080017 619.0 
322.083557 133.0 
323.053955 329.0 
323.092529 1777.0 
324.093658 314.0 
326.105804 81.0 
327.085663 224.0 
329.033447 134.0 
329.105347 1217.0 
330.049744 77.0 
330.08432 230.0 
330.123596 323.0 
331.131073 937.0 
332.095337 104.0 
332.127472 100.0 
333.049957 173.0 
333.075928 245.0 
333.126251 116.0 
333.161316 214.0 
334.070984 221.0 
335.088745 1399.0 
335.161987 466.0 
336.05603 282.0 
336.127075 158.0 
337.074371 168.0 
338.066803 111.0 
339.033844 170.0 
339.091766 467.0 
340.089539 108.0 
345.109955 124.0 
346.122162 117.0 
347.053223 240.0 
347.090607 174.0 
347.127411 4308.0 
348.135742 848.0 
349.070374 339.0 
349.127319 171.0 
350.08139 117.0 
350.156219 319.0 
351.084991 713.0 
355.107361 124.0 
356.106812 140.0 
357.096954 159.0 
358.124329 159.0 
359.048279 161.0 
359.126068 2146.0 
360.065247 217.0 
360.133698 1126.0 
361.124084 553.0 
362.110779 867.0 
362.703735 117.0 
363.121368 245.0 
363.156708 1719.0 
364.166016 604.0 
365.105438 358.0 
365.211365 82.0 
367.091248 258.0 
367.155731 89.0 
369.14328 110.0 
369.187531 220.0 
374.134521 211.0 
375.123413 1701.0 
375.200531 131.0 
376.103821 110.0 
376.139069 148.0 
377.133545 307.0 
378.143524 373.0 
379.152863 2261.0 
380.028534 191.0 
380.151825 414.0 
382.256897 104.0 
385.15033 224.0 
385.179443 373.0 
386.114716 201.0 
386.176971 288.0 
388.136688 199.0 
388.19873 176.0 
389.143616 484.0 
389.206421 312.0 
390.136902 225.0 
391.053406 181.0 
391.119537 1365.0 
391.152802 4382.0 
391.810455 128.0 
392.158325 565.0 
392.931946 116.0 
393.10675 206.0 
393.178314 150.0 
393.520538 229.0 
394.137756 312.0 
394.733795 164.0 
395.001678 286.0 
395.145477 1444.0 
396.153595 353.0 
402.177673 584.0 
403.114105 1261.0 
403.189728 456.0 
404.129974 213.0 
404.199615 412.0 
405.131866 604.0 
407.083313 101.0 
407.147217 3724.0 
408.156158 571.0 
409.143311 74.0 
411.180573 143.0 
413.176941 303.0 
414.179443 115.0 
415.189331 3759.0 
415.356201 237.0 
416.191711 942.0 
417.129303 410.0 
417.172791 145.0 
418.126617 95.0 
418.211823 119.0 
419.218628 335.0 
420.222137 85.0 
421.224945 111.0 
422.168488 119.0 
423.143585 314.0 
429.203522 605.0 
431.183289 1140.0 
432.188354 584.0 
433.190552 95.0 
434.86731 90.0 
435.137756 640.0 
441.16864 1208.0 
442.163422 129.0 
445.196991 1123.0 
447.040039 288.0 
447.221313 1920.0 
448.218719 623.0 
455.141144 263.0 
455.178497 210.0 
456.186554 204.0 
459.179626 994.0 
460.189697 426.0 
463.132202 331.0 
463.2117 4897.0 
464.209686 532.0 
467.168549 3594.0 
468.17569 1834.0 
473.200653 1423.0 
475.202576 101.0 
476.635284 113.0 
477.219147 185.0 
481.169312 162.0 
491.206207 1184.0 
492.211304 370.0 
495.231049 81.0 
516.054443 114.0 
523.234863 2669.0 
524.237061 1338.0 
524.360046 128.0 
637.548462 140.0 
1659.789795 152.0 
1927.630737 258.0 
END IONS

BEGIN IONS
TITLE=Scan Number: 146
PEPMASS=540.25897
CHARGE=1+
MSLEVEL=2
FILENAME=G3_RG3_01_2949.mzXML
INSTRUMENT=ion trap
SCANS=146
SMILES=COC(=O)C2(CC1=CC=C(O)C(CC=C(C)C)=C1)OC(=O)C(OC)=C2C3=CC(O)=C(O)C(CC=C(C)C)=C3
INCHIKEY=LARSXHUKWMVHRB-UHFFFAOYSA-N
91.052612 259.0 
95.567245 254.0 
107.049217 599.0 
117.069931 232.0 
119.049919 850.0 
119.08371 341.0 
120.003738 287.0 
120.71331 245.0 
121.064377 4036.0 
122.072639 315.0 
131.085602 118.0 
133.063354 2564.0 
133.102585 183.0 
134.067688 276.0 
134.918961 238.0 
135.041382 417.0 
137.056427 374.0 
142.073639 119.0 
144.093414 259.0 
145.073441 222.0 
145.105972 225.0 
147.077301 372.0 
147.121109 150.0 
148.052216 232.0 
151.039139 234.0 
151.074631 257.0 
155.085815 596.0 
156.090073 154.0 
157.100784 1608.0 
158.070023 859.0 
158.09758 153.0 
159.077789 690.0 
161.059265 146.0 
161.095932 617.0 
164.04599 185.0 
164.594101 362.0 
167.067078 107.0 
172.079987 188.0 
173.094894 4031.0 
174.097 765.0 
175.039597 183.0 
175.065735 185.0 
175.111145 19041.0 
175.472687 144.0 
176.115372 3200.0 
177.054794 241.0 
177.508774 134.0 
178.079727 226.0 
179.372467 101.0 
180.254913 118.0 
181.064056 262.0 
187.034561 161.0 
187.081955 158.0 
187.110428 326.0 
189.056442 286.0 
189.093079 220.0 
190.023026 244.0 
191.063583 137.0 
191.099503 211.0 
192.044754 172.0 
192.071747 330.0 
194.070541 106.0 
195.079758 283.0 
197.049606 119.0 
198.063477 188.0 
199.088409 217.0 
201.053314 152.0 
201.087311 373.0 
202.025604 338.0 
205.050476 108.0 
205.078659 80.0 
205.119949 128.0 
206.053299 174.0 
211.041336 161.0 
211.071777 298.0 
213.053497 166.0 
213.092102 188.0 
215.064438 107.0 
215.103302 137.0 
216.037155 189.0 
216.079987 152.0 
217.051819 577.0 
217.08699 140.0 
219.063553 229.0 
220.034485 139.0 
220.080704 163.0 
221.060913 197.0 
222.059036 264.0 
224.11322 127.0 
225.088715 163.0 
226.055145 221.0 
226.095535 151.0 
227.030441 148.0 
227.062836 362.0 
228.074509 162.0 
229.093369 214.0 
231.066238 168.0 
231.101578 238.0 
232.104935 217.0 
233.096497 203.0 
234.058334 454.0 
235.056076 418.0 
235.586349 203.0 
236.065857 242.0 
239.0289 148.0 
240.484833 112.0 
241.05687 425.0 
241.080093 403.0 
242.065079 159.0 
243.060425 193.0 
243.096756 407.0 
244.089905 194.0 
245.1017 469.0 
246.122528 131.0 
247.068497 211.0 
248.090714 381.0 
249.036697 614.0 
249.088135 207.0 
249.121979 129.0 
251.068222 181.0 
252.044434 171.0 
253.044357 114.0 
253.090408 185.0 
255.060867 217.0 
255.115112 291.0 
256.062225 191.0 
257.051086 168.0 
258.04425 94.0 
258.100555 158.0 
259.053192 242.0 
259.093231 174.0 
260.05658 159.0 
261.042908 845.0 
262.037506 157.0 
262.102386 200.0 
263.058899 1127.0 
264.080688 260.0 
264.449463 173.0 
265.082245 475.0 
266.052734 370.0 
266.091156 333.0 
267.056519 116.0 
268.057617 136.0 
269.076416 421.0 
271.065063 213.0 
272.113007 323.0 
273.07077 440.0 
273.123932 292.0 
274.086914 1026.0 
275.055481 329.0 
275.127655 104.0 
277.084137 705.0 
277.848572 159.0 
278.051636 151.0 
278.086121 197.0 
278.122681 123.0 
279.043091 236.0 
279.070557 341.0 
280.102448 157.0 
281.065277 351.0 
281.102539 115.0 
282.103668 201.0 
283.074921 191.0 
283.110291 493.0 
285.114502 451.0 
287.063141 180.0 
287.103119 324.0 
288.113617 209.0 
289.087524 334.0 
289.141113 179.0 
289.58728 334.0 
290.05835 137.0 
291.076141 292.0 
291.142578 177.0 
293.065033 785.0 
294.079956 189.0 
295.055054 183.0 
297.084656 161.0 
298.089539 200.0 
299.095734 922.0 
300.11203 266.0 
301.080139 124.0 
301.138824 259.0 
302.085266 163.0 
302.118195 126.0 
303.082275 688.0 
303.129791 257.0 
303.768158 206.0 
304.092346 217.0 
305.045624 249.0 
306.054718 113.0 
307.096527 305.0 
308.079651 321.0 
308.109894 258.0 
309.064728 152.0 
311.610016 107.0 
312.113617 365.0 
313.123993 468.0 
314.12326 211.0 
315.085388 2338.0 
316.105347 630.0 
317.10025 1222.0 
317.133331 569.0 
318.128845 636.0 
318.739594 89.0 
319.130005 605.0 
320.140198 275.0 
323.094574 585.0 
323.169373 117.0 
324.112671 215.0 
329.119537 421.0 
330.082214 88.0 
330.124054 687.0 
331.087402 113.0 
331.131256 708.0 
332.058197 201.0 
332.128235 219.0 
333.034912 140.0 
333.099792 489.0 
333.146881 473.0 
333.21524 126.0 
335.16452 153.0 
336.093109 83.0 
339.083679 113.0 
340.107819 166.0 
341.123047 344.0 
342.090332 128.0 
343.097229 328.0 
345.105927 126.0 
345.201843 85.0 
346.11441 331.0 
346.992798 181.0 
347.062042 229.0 
347.125336 1257.0 
348.088348 254.0 
348.127563 875.0 
351.152618 135.0 
352.088501 167.0 
353.102295 260.0 
354.101807 191.0 
356.104614 691.0 
357.109894 1352.0 
358.076752 134.0 
358.110046 149.0 
359.120239 1018.0 
360.128418 301.0 
361.110718 435.0 
361.137207 319.0 
363.125397 249.0 
363.156586 713.0 
373.113373 125.0 
374.063599 195.0 
374.121979 187.0 
375.12085 608.0 
376.126404 477.0 
376.201447 104.0 
377.104706 187.0 
377.160522 235.0 
378.087097 114.0 
379.118225 303.0 
379.153473 1081.0 
380.154449 117.0 
381.092041 513.0 
385.101685 477.0 
385.191803 189.0 
386.110992 306.0 
387.073547 115.0 
389.098999 191.0 
389.137115 614.0 
390.135956 124.0 
391.106384 179.0 
391.155304 1771.0 
392.119629 171.0 
392.153595 229.0 
393.15509 177.0 
395.15094 135.0 
396.147919 185.0 
400.661255 147.0 
401.208374 149.0 
403.045959 269.0 
403.104218 117.0 
403.141418 128.0 
405.138824 310.0 
407.147461 4468.0 
408.148926 360.0 
411.068604 131.0 
415.126892 234.0 
415.19281 812.0 
417.127625 97.0 
419.238495 353.0 
420.202393 109.0 
421.174011 224.0 
423.114044 162.0 
423.149689 433.0 
425.114441 115.0 
431.190033 132.0 
432.171967 310.0 
435.14444 1250.0 
436.125122 170.0 
447.218781 360.0 
449.175232 175.0 
455.101227 299.0 
455.169525 496.0 
459.184113 332.0 
463.157654 131.0 
463.225433 279.0 
464.220062 139.0 
466.867462 241.0 
467.119598 319.0 
467.169647 4840.0 
467.252289 180.0 
468.169464 1134.0 
468.30426 85.0 
470.983856 113.0 
471.983795 99.0 
477.231171 152.0 
479.241241 91.0 
491.208221 577.0 
523.231934 887.0 
524.247803 370.0 
1415.692871 671.0 
1807.723511 206.0 
END IONS

BEGIN IONS
TITLE=Scan Number: 149
PEPMASS=423.17999
CHARGE=1+
MSLEVEL=2
FILENAME=E12_RE12_01_2868.mzXML
INSTRUMENT=ion trap
SCANS=149
SMILES=CC(C)=CCC1=C(OC2=C(C1=O)C(O)=CC(O)=C2CC=C(C)C)C3=C(O)C=C(O)C=C3
INCHIKEY=UWQYBLOHTQWSQD-UHFFFAOYSA-N
70.000038 429.0 
71.396835 182.0 
71.470345 303.0 
71.582741 263.0 
72.219955 170.0 
72.465401 244.0 
73.326645 122.0 
74.005135 222.0 
74.106689 307.0 
74.331467 219.0 
74.433952 146.0 
74.789543 82.0 
75.96785 195.0 
76.893387 282.0 
77.037964 134.0 
77.374397 112.0 
78.645485 133.0 
78.811798 133.0 
79.017426 4075.0 
79.053146 527.0 
79.267242 80.0 
80.584312 255.0 
81.032257 127.0 
81.991707 287.0 
82.530075 227.0 
83.049767 132.0 
83.725479 227.0 
85.325966 158.0 
86.919472 276.0 
87.008919 168.0 
87.097572 241.0 
87.337852 219.0 
87.76062 159.0 
88.430466 350.0 
88.727119 267.0 
88.771332 154.0 
89.041084 510.0 
89.444641 332.0 
89.651375 94.0 
89.913811 88.0 
90.647285 322.0 
91.003822 207.0 
91.055283 283.0 
91.148117 363.0 
91.224869 172.0 
91.597237 298.0 
92.048653 97.0 
92.230942 324.0 
92.996254 182.0 
93.036034 163.0 
93.072525 221.0 
93.339043 123.0 
94.156128 231.0 
94.720428 212.0 
95.081894 319.0 
95.648003 89.0 
95.723282 259.0 
96.306244 181.0 
97.023987 201.0 
97.102432 147.0 
97.940109 152.0 
97.96386 222.0 
98.789391 199.0 
99.007309 314.0 
99.108154 292.0 
99.927376 228.0 
101.04763 295.0 
101.467636 94.0 
101.801315 273.0 
102.478409 233.0 
103.019508 206.0 
103.052986 199.0 
103.602242 133.0 
104.000954 166.0 
104.281654 263.0 
104.431091 122.0 
104.88858 254.0 
105.0327 653.0 
105.32325 412.0 
105.836487 141.0 
106.133583 298.0 
106.363091 177.0 
107.469261 183.0 
107.756401 319.0 
107.904053 188.0 
108.493515 257.0 
109.010307 189.0 
109.029747 1059.0 
109.061012 60.0 
110.479713 354.0 
111.006348 348.0 
111.043655 504.0 
112.039238 130.0 
112.835548 209.0 
113.150269 62.0 
113.72348 240.0 
113.994354 91.0 
114.964317 125.0 
115.057137 599.0 
116.062309 434.0 
117.034134 714.0 
117.069397 171.0 
117.177216 132.0 
117.345161 204.0 
118.02581 311.0 
119.0476 2915.0 
119.087769 148.0 
120.028809 343.0 
120.052269 1126.0 
120.447777 260.0 
121.028564 791.0 
121.052299 394.0 
121.375008 201.0 
121.420929 178.0 
121.608543 241.0 
121.655045 123.0 
122.036446 163.0 
122.133247 329.0 
122.626404 127.0 
122.98835 156.0 
123.007599 3042.0 
123.045479 1426.0 
123.118393 100.0 
124.010178 306.0 
124.045845 310.0 
124.166801 132.0 
124.974266 196.0 
125.685234 130.0 
126.012421 229.0 
127.038116 173.0 
127.100403 117.0 
127.222626 149.0 
128.009827 258.0 
128.06192 733.0 
129.07045 1132.0 
129.22139 69.0 
129.574753 238.0 
130.059631 253.0 
130.717438 98.0 
131.048325 1377.0 
131.088074 457.0 
132.055298 220.0 
133.026947 185.0 
133.064392 178.0 
133.100433 177.0 
133.274246 73.0 
134.035431 505.0 
135.006287 194.0 
135.043945 129.0 
135.839264 155.0 
136.342239 244.0 
137.022369 2800.0 
138.02948 160.0 
138.278519 126.0 
138.663055 228.0 
138.993378 236.0 
139.038956 14107.0 
139.478622 225.0 
139.729553 356.0 
140.021057 123.0 
140.041321 604.0 
140.969086 179.0 
140.993912 269.0 
141.017746 4031.0 
141.066605 936.0 
141.607361 408.0 
142.071701 698.0 
142.346664 301.0 
142.928467 284.0 
143.04985 678.0 
143.082367 349.0 
143.360992 184.0 
144.058685 104.0 
144.391602 308.0 
144.478409 123.0 
144.538513 308.0 
144.731888 157.0 
145.027878 9484.0 
145.066681 936.0 
145.098068 270.0 
145.579361 168.0 
145.982071 169.0 
146.031326 559.0 
146.06752 443.0 
146.730621 141.0 
146.758636 495.0 
147.044098 16157.0 
147.08197 129.0 
148.049606 3128.0 
148.426346 99.0 
148.450897 175.0 
149.023941 291.0 
149.056763 836.0 
149.255478 213.0 
150.885529 178.0 
151.037415 389.0 
152.063278 268.0 
153.017395 442.0 
153.070663 953.0 
153.841217 325.0 
154.079529 236.0 
154.237289 194.0 
155.036057 291.0 
155.056686 692.0 
155.087357 159.0 
156.058334 176.0 
156.089233 215.0 
156.362518 395.0 
156.825958 211.0 
157.064957 1332.0 
157.245346 172.0 
157.448257 337.0 
158.069595 674.0 
158.707397 213.0 
158.919983 179.0 
159.044647 1396.0 
159.075394 245.0 
159.709351 194.0 
160.046951 773.0 
160.366196 163.0 
160.531189 240.0 
160.839111 259.0 
160.860275 204.0 
161.021606 302.0 
161.058731 2302.0 
161.379074 83.0 
162.065674 594.0 
162.732971 264.0 
162.92244 107.0 
162.988922 302.0 
163.036346 1002.0 
163.466827 135.0 
163.537872 344.0 
164.04245 199.0 
164.56398 394.0 
164.675018 109.0 
165.018188 54117.0 
165.06926 651.0 
165.107224 86.0 
165.139465 116.0 
165.335556 210.0 
166.021576 3600.0 
166.6586 245.0 
166.749664 188.0 
167.031967 583.0 
167.19574 141.0 
168.058655 677.0 
168.463425 292.0 
168.843094 183.0 
169.064499 2195.0 
169.106232 342.0 
170.069443 455.0 
170.153732 193.0 
170.550049 205.0 
170.864731 86.0 
171.042328 1231.0 
171.081955 595.0 
172.048599 179.0 
172.358368 224.0 
172.46109 304.0 
172.524414 188.0 
172.727219 169.0 
172.925812 129.0 
172.981064 317.0 
173.023361 26757.0 
173.058838 3093.0 
173.109146 185.0 
173.136978 81.0 
173.412216 313.0 
173.695358 106.0 
173.943863 148.0 
174.028976 3225.0 
174.065964 680.0 
174.496979 83.0 
174.901764 153.0 
175.036697 1514.0 
175.072464 168.0 
175.451447 148.0 
175.882889 89.0 
176.020462 177.0 
176.083496 148.0 
176.315292 273.0 
176.769165 194.0 
177.063171 282.0 
177.591995 196.0 
178.147766 323.0 
179.035751 343.0 
179.769501 202.0 
180.171585 306.0 
180.498535 240.0 
180.731903 68.0 
180.777954 199.0 
180.98967 217.0 
181.066223 2044.0 
181.10437 138.0 
181.502136 112.0 
182.070602 250.0 
183.029709 7412.0 
183.084183 383.0 
183.212616 95.0 
184.049301 1571.0 
184.514648 102.0 
185.019775 116.0 
185.05896 3922.0 
185.105331 63.0 
186.03125 176.0 
186.063477 1756.0 
186.164597 354.0 
186.998184 334.0 
187.040192 6313.0 
187.075684 1435.0 
187.170761 86.0 
188.045609 353.0 
188.08876 603.0 
188.153137 248.0 
189.020615 569.0 
189.055435 627.0 
189.27037 66.0 
189.702225 231.0 
190.005173 146.0 
190.241394 208.0 
190.861206 166.0 
191.034271 7549.0 
191.256683 99.0 
191.710648 89.0 
192.036545 1086.0 
192.11467 115.0 
192.132919 153.0 
193.037308 135.0 
193.061279 107.0 
193.14325 246.0 
193.781784 260.0 
195.046432 923.0 
195.089233 195.0 
195.149521 260.0 
195.351776 270.0 
195.509186 128.0 
195.717117 222.0 
196.060501 344.0 
197.060059 4069.0 
198.061172 532.0 
198.906204 183.0 
199.037308 2294.0 
199.074463 2573.0 
199.106201 165.0 
199.51123 232.0 
199.641998 474.0 
199.681473 275.0 
199.982727 257.0 
200.041962 391.0 
200.075867 120.0 
200.212753 183.0 
200.277649 240.0 
200.465347 125.0 
200.484161 170.0 
201.053162 3292.0 
201.094406 401.0 
201.373077 218.0 
202.060287 227.0 
202.086533 239.0 
202.889297 81.0 
203.026794 270.0 
203.069321 475.0 
203.109146 680.0 
204.360641 322.0 
204.507187 328.0 
205.007233 297.0 
205.048599 179.0 
205.65712 600.0 
206.727493 95.0 
207.028854 1979.0 
207.144226 86.0 
207.189926 115.0 
207.224106 60.0 
208.26506 106.0 
209.022568 161.0 
209.060699 2502.0 
209.840149 287.0 
209.970352 253.0 
210.010559 149.0 
210.071045 422.0 
210.209824 215.0 
211.017471 480.0 
211.037903 718.0 
211.073669 739.0 
211.519135 189.0 
211.655014 133.0 
211.90329 331.0 
212.039581 389.0 
212.085754 184.0 
213.054794 23486.0 
213.858856 213.0 
214.034866 367.0 
214.061295 3239.0 
214.494003 99.0 
214.974106 70.0 
215.034744 2893.0 
215.069946 5911.0 
215.307388 298.0 
215.507767 141.0 
215.703293 276.0 
216.037521 1240.0 
216.074112 650.0 
217.047638 1274.0 
217.534546 141.0 
217.739853 78.0 
218.059448 121.0 
218.291702 65.0 
218.400681 111.0 
220.026215 123.0 
220.5849 202.0 
221.059387 516.0 
221.080414 413.0 
221.338165 294.0 
221.444641 211.0 
221.783524 73.0 
221.991577 240.0 
222.090546 119.0 
222.125381 163.0 
223.039688 734.0 
223.074173 799.0 
223.311066 295.0 
223.7379 272.0 
223.988205 114.0 
224.050842 126.0 
224.312088 198.0 
224.558228 213.0 
225.058609 882.0 
225.090775 73.0 
225.32933 215.0 
225.498535 194.0 
225.619171 228.0 
225.726395 100.0 
225.817871 83.0 
226.052933 496.0 
226.279541 120.0 
226.970001 177.0 
227.035141 20179.0 
227.071884 5283.0 
227.383636 191.0 
227.788361 116.0 
228.039368 9160.0 
228.339783 220.0 
228.863159 231.0 
229.048691 5590.0 
229.33374 210.0 
229.479797 289.0 
229.996201 285.0 
230.053085 632.0 
230.20134 190.0 
231.026535 211.0 
231.103729 291.0 
231.216431 79.0 
231.51123 185.0 
232.06575 158.0 
232.556046 328.0 
233.041489 142.0 
233.075989 84.0 
233.63327 214.0 
233.748779 213.0 
234.690491 224.0 
235.034271 179.0 
235.076645 321.0 
235.134796 431.0 
235.329666 284.0 
235.533417 199.0 
236.03714 162.0 
236.668198 167.0 
237.018387 165.0 
237.054535 7318.0 
238.060455 1676.0 
238.128677 259.0 
238.732727 133.0 
239.033417 687.0 
239.069489 1036.0 
239.236252 71.0 
239.27919 106.0 
239.839615 197.0 
239.919968 135.0 
240.012192 317.0 
240.040741 1017.0 
240.074829 708.0 
240.12178 328.0 
240.20076 360.0 
240.269043 82.0 
240.322906 326.0 
240.350433 229.0 
240.432266 253.0 
240.576675 271.0 
240.612701 93.0 
240.636612 125.0 
240.66864 95.0 
240.711288 165.0 
240.75676 152.0 
240.852081 329.0 
240.886383 440.0 
240.928436 159.0 
241.04982 546823.0 
241.157776 905.0 
241.210434 126.0 
241.252197 218.0 
241.301697 352.0 
241.400925 178.0 
241.425415 153.0 
241.454727 88.0 
241.522675 169.0 
241.568512 163.0 
241.604187 144.0 
241.645523 335.0 
241.671829 250.0 
241.809082 215.0 
241.84137 232.0 
241.883545 86.0 
241.91568 528.0 
242.055038 114169.0 
242.209213 144.0 
242.256775 193.0 
242.394821 215.0 
242.468948 153.0 
242.532181 124.0 
242.622391 80.0 
242.882965 71.0 
242.933792 61.0 
242.968704 124.0 
243.019379 709.0 
243.064117 35762.0 
243.233017 207.0 
243.312378 87.0 
243.370468 83.0 
243.49588 543.0 
243.637283 100.0 
243.673172 175.0 
243.734268 247.0 
243.809189 287.0 
243.837494 110.0 
243.932053 175.0 
243.989304 92.0 
244.070267 4448.0 
244.1185 220.0 
244.165894 98.0 
244.598679 125.0 
244.656097 76.0 
244.782333 121.0 
244.922455 121.0 
245.067322 80.0 
245.846313 126.0 
246.004684 199.0 
246.098953 223.0 
246.243011 221.0 
247.072784 124.0 
247.564346 256.0 
247.832535 220.0 
248.049347 119.0 
248.820023 200.0 
249.052979 470.0 
249.160187 284.0 
250.978989 181.0 
251.036224 1575.0 
251.096344 89.0 
251.146011 110.0 
251.896042 199.0 
252.00444 98.0 
252.070648 101.0 
252.585037 124.0 
252.788391 136.0 
253.016663 169.0 
253.045227 508.0 
253.179489 244.0 
253.312271 74.0 
253.421539 370.0 
253.584381 309.0 
253.67334 61.0 
254.056992 2293.0 
254.41066 110.0 
254.522095 279.0 
254.639374 332.0 
254.863388 117.0 
254.987061 318.0 
255.06546 43926.0 
255.461975 121.0 
255.674438 105.0 
256.034271 376.0 
256.070953 6708.0 
256.243164 142.0 
257.012115 170.0 
257.04776 2039.0 
257.076904 793.0 
257.417145 90.0 
257.569031 91.0 
257.690277 266.0 
257.780884 197.0 
258.015747 63.0 
258.043915 105.0 
258.194916 69.0 
258.487244 311.0 
259.068878 171.0 
259.097961 260.0 
259.922241 98.0 
260.077362 93.0 
260.229462 174.0 
260.489807 160.0 
261.098083 119.0 
261.27478 271.0 
262.202545 72.0 
262.55481 165.0 
264.247406 156.0 
264.868713 167.0 
265.049377 29387.0 
265.742981 77.0 
265.779846 110.0 
266.055023 7044.0 
266.408997 83.0 
266.600403 154.0 
266.68277 75.0 
266.821625 132.0 
267.033417 619.0 
267.06604 3681.0 
267.544373 96.0 
267.864288 81.0 
267.974548 206.0 
268.035339 1353.0 
268.07663 576.0 
268.660675 216.0 
268.882935 130.0 
268.976501 310.0 
269.045471 50357.0 
269.111969 529.0 
269.681458 113.0 
269.828766 92.0 
270.04718 5830.0 
271.030396 174.0 
271.868164 134.0 
272.026428 109.0 
272.620178 296.0 
273.032349 166.0 
273.075745 310.0 
274.061768 86.0 
274.613129 186.0 
274.98468 214.0 
275.03894 236.0 
275.091278 172.0 
275.131775 269.0 
276.092499 156.0 
276.400391 110.0 
279.069489 138.0 
279.096375 428.0 
279.96759 225.0 
281.044983 646.0 
281.214752 276.0 
281.550842 149.0 
281.957977 74.0 
282.050995 2644.0 
282.113647 125.0 
282.978149 931.0 
283.060791 88602.0 
283.14624 164.0 
283.191711 185.0 
283.245361 197.0 
283.326294 209.0 
283.362366 201.0 
283.495087 133.0 
283.627106 231.0 
283.976593 444.0 
284.063416 15048.0 
284.661255 105.0 
285.066162 917.0 
285.387665 201.0 
285.668152 168.0 
285.791809 84.0 
285.864655 62.0 
286.042328 285.0 
286.425934 128.0 
286.87561 190.0 
287.038544 471.0 
287.061584 877.0 
288.024872 95.0 
288.056915 145.0 
288.09491 209.0 
289.085663 251.0 
289.134003 131.0 
289.187378 101.0 
290.656647 246.0 
290.872101 198.0 
291.061035 110.0 
291.753967 142.0 
292.031952 173.0 
292.972839 153.0 
293.045807 21686.0 
293.253571 170.0 
293.364563 149.0 
293.472137 153.0 
293.911011 184.0 
294.052155 13181.0 
294.099609 147.0 
294.153656 115.0 
294.232666 87.0 
294.461792 200.0 
294.791199 132.0 
294.997223 100.0 
295.058075 3749.0 
295.095886 294.0 
295.48233 86.0 
296.063019 836.0 
297.037384 234.0 
297.077698 189.0 
297.112061 1284.0 
297.47287 178.0 
298.629974 192.0 
299.007904 154.0 
299.05426 4086.0 
299.126129 785.0 
299.483887 85.0 
300.026245 265.0 
300.524902 210.0 
300.965607 76.0 
301.032776 170.0 
301.203247 315.0 
301.24472 98.0 
302.708313 248.0 
303.603149 251.0 
304.249695 319.0 
304.892761 232.0 
305.782349 73.0 
306.055145 141.0 
306.66272 346.0 
306.927277 125.0 
307.063751 190.0 
307.093079 173.0 
307.730377 207.0 
307.825775 89.0 
308.070618 205.0 
308.611847 91.0 
308.788025 69.0 
308.947571 209.0 
309.032501 1137.0 
309.071899 149.0 
309.135468 187.0 
309.21109 450.0 
309.311127 159.0 
309.417084 68.0 
309.458557 158.0 
309.49176 130.0 
309.533539 262.0 
309.607758 319.0 
309.670776 94.0 
309.761261 156.0 
309.796722 84.0 
309.833679 264.0 
309.891357 242.0 
309.960999 118.0 
309.988953 268.0 
310.048065 6446.0 
310.102081 318.0 
310.146515 429.0 
310.182281 363.0 
310.301422 321.0 
310.34024 378.0 
310.395477 94.0 
310.433472 362.0 
310.508026 233.0 
310.541534 150.0 
310.56543 223.0 
310.610565 291.0 
310.715942 440.0 
310.766022 970.0 
310.86322 885.0 
310.934326 3026.0 
311.055908 1291434.0 
311.140594 855.0 
311.197845 427.0 
311.226349 374.0 
311.282593 508.0 
311.356995 893.0 
311.41983 840.0 
311.481049 780.0 
311.526611 294.0 
311.575104 268.0 
311.662506 289.0 
311.710693 153.0 
311.741669 276.0 
311.820099 118.0 
311.865295 363.0 
311.907806 658.0 
311.971954 1010.0 
312.059448 153583.0 
312.131378 758.0 
312.322662 91.0 
312.409882 61.0 
312.509521 152.0 
312.652344 395.0 
312.685333 379.0 
312.861237 80.0 
312.924011 276.0 
313.060913 5856.0 
313.105194 272.0 
313.195404 228.0 
313.242706 206.0 
313.367401 85.0 
313.478638 72.0 
313.517944 202.0 
313.568176 140.0 
313.656494 119.0 
313.775726 104.0 
313.924683 265.0 
313.963806 142.0 
314.01767 257.0 
314.101135 445.0 
314.137939 514.0 
314.174194 664.0 
314.246552 600.0 
314.287689 630.0 
314.320892 471.0 
314.382874 411.0 
314.41806 250.0 
314.686798 137.0 
314.754242 102.0 
314.89389 60.0 
314.951416 98.0 
314.990479 68.0 
315.125671 113.0 
315.202667 192.0 
315.242676 159.0 
315.31485 239.0 
316.809967 90.0 
317.386017 146.0 
318.415161 292.0 
322.040558 119.0 
323.016266 291.0 
323.055969 2469.0 
323.196533 268.0 
323.718048 229.0 
323.909576 128.0 
324.057983 436.0 
324.322174 90.0 
324.475525 145.0 
324.645081 96.0 
324.812866 85.0 
324.965454 348.0 
325.002411 159.0 
325.069519 5805.0 
325.108978 1429.0 
326.02301 336.0 
326.072906 1711.0 
326.107574 452.0 
326.97644 107.0 
327.143677 116.0 
327.217346 74.0 
328.515747 238.0 
329.00769 164.0 
329.718719 101.0 
330.979584 71.0 
331.093231 97.0 
331.860016 83.0 
335.057251 264.0 
335.080231 348.0 
336.093323 321.0 
337.071442 309.0 
339.084778 374.0 
339.125885 428.0 
341.280243 188.0 
345.1875 445.0 
346.166718 203.0 
347.969543 255.0 
349.104706 1758.0 
350.099091 249.0 
351.124298 197.0 
353.045959 291.0 
354.519531 78.0 
355.117828 876.0 
355.384918 60.0 
356.089142 128.0 
360.494354 226.0 
362.504089 162.0 
364.878265 72.0 
365.113831 186.0 
365.152679 162.0 
365.664459 128.0 
366.115967 368.0 
366.346191 80.0 
366.544708 120.0 
366.717499 209.0 
366.977661 226.0 
367.118835 79774.0 
367.688049 76.0 
367.943298 273.0 
368.058777 414.0 
368.122772 10872.0 
368.965881 136.0 
369.128235 321.0 
369.378357 103.0 
369.56958 80.0 
370.320343 83.0 
370.561066 168.0 
370.675842 74.0 
371.444244 99.0 
372.972229 84.0 
376.803864 175.0 
378.319824 155.0 
379.116333 289.0 
379.253448 300.0 
380.115753 179.0 
380.372162 225.0 
380.958923 157.0 
381.134399 1361.0 
381.652954 86.0 
382.64975 158.0 
384.3638 120.0 
387.616974 215.0 
387.672211 103.0 
392.375427 145.0 
392.455109 392.0 
395.156067 117.0 
405.18512 239.0 
412.816956 84.0 
414.889313 84.0 
416.713593 176.0 
417.751343 115.0 
418.790741 166.0 
420.252502 74.0 
420.640167 245.0 
420.761292 117.0 
421.139771 103.0 
421.951202 135.0 
422.199493 195.0 
422.2565 162.0 
422.329712 130.0 
422.470062 94.0 
422.671173 277.0 
422.739685 87.0 
422.784546 166.0 
422.831238 256.0 
422.884979 137.0 
422.962585 257.0 
423.00235 149.0 
423.07666 1747.0 
423.182587 271891.0 
423.395691 394.0 
423.43985 233.0 
423.512665 167.0 
423.719391 282.0 
423.821869 139.0 
423.915131 91.0 
424.185577 48887.0 
424.305389 194.0 
424.384186 77.0 
424.46994 75.0 
424.599182 73.0 
424.700775 87.0 
424.756927 100.0 
424.785675 115.0 
425.19278 611.0 
426.356384 226.0 
426.411072 156.0 
426.619568 133.0 
426.709625 249.0 
426.840881 151.0 
426.90213 203.0 
427.022583 79.0 
427.058441 155.0 
427.184265 160.0 
427.492188 172.0 
427.899414 120.0 
427.96521 119.0 
436.493469 160.0 
436.730316 61.0 
438.797516 73.0 
442.20163 89.0 
443.467194 141.0 
445.190765 60.0 
445.854614 104.0 
506.973145 83.0 
565.343323 130.0 
579.002319 112.0 
1041.767944 209.0 
1270.958252 102.0 
1373.350098 88.0 
1429.28833 80.0 
1489.602661 87.0 
1677.264771 167.0 
1853.328003 234.0 
1996.192261 247.0 
1999.821777 237.0 
END IONS

BEGIN IONS
TITLE=Scan Number: 150
PEPMASS=547.18103
CHARGE=1+
MSLEVEL=2
FILENAME=E12_RE12_01_2868.mzXML
INSTRUMENT=ion trap
SCANS=150
SMILES=C[C@@H]1O[C@@H](OC2=CC=C(C=C2)C3=COC4=C(C=CC(O[C@@H]5O[C@@H](C)[C@H](O)[C@@H](O)[C@H]5O)=C4)C3=O)[C@H](O)[C@H](O)[C@H]1O
INCHIKEY=RIXHOIPNPVCEHZ-WIYOTWCASA-N
70.431732 79.0 
70.99836 200.0 
71.013512 493.0 
71.04837 9227.0 
71.078712 98.0 
71.150482 194.0 
72.830132 371.0 
73.025139 431.0 
73.685478 92.0 
74.663887 79.0 
75.043877 597.0 
76.260941 337.0 
79.063866 180.0 
82.566719 309.0 
83.047661 922.0 
84.118286 199.0 
84.320503 138.0 
84.480927 125.0 
84.987099 139.0 
85.02755 22176.0 
86.027969 424.0 
87.006111 237.0 
87.043327 868.0 
88.19957 97.0 
89.752342 89.0 
91.055374 285.0 
93.06868 170.0 
96.109665 190.0 
96.176064 290.0 
98.45594 193.0 
98.689384 214.0 
99.047028 204.0 
101.058159 358.0 
102.072929 277.0 
102.33712 177.0 
103.038254 152.0 
105.030968 377.0 
106.122581 276.0 
107.227539 195.0 
107.579384 193.0 
111.044716 954.0 
111.191673 91.0 
112.045334 182.0 
114.486397 209.0 
115.050865 145.0 
116.867493 258.0 
117.051163 231.0 
119.058327 501.0 
120.010956 94.0 
121.045303 206.0 
123.288109 186.0 
128.179382 249.0 
128.558578 131.0 
128.941269 136.0 
129.054642 6204.0 
130.056076 128.0 
131.0858 137.0 
133.026749 379.0 
133.585831 273.0 
133.804184 189.0 
137.022461 2977.0 
137.131546 318.0 
137.788513 160.0 
138.010162 185.0 
139.179077 172.0 
141.5793 231.0 
142.24678 163.0 
142.329575 223.0 
145.027466 415.0 
145.464828 256.0 
146.563629 254.0 
146.679932 187.0 
147.066544 171.0 
148.989288 230.0 
149.027527 265.0 
149.266663 95.0 
149.910416 214.0 
152.060028 156.0 
153.072372 229.0 
154.074036 195.0 
155.083405 158.0 
157.067245 389.0 
159.083633 115.0 
161.650696 163.0 
163.03653 113.0 
163.194 210.0 
164.737076 124.0 
165.067078 172.0 
166.727158 206.0 
167.031204 155.0 
167.914688 244.0 
168.068893 182.0 
169.057587 357.0 
169.765656 366.0 
170.124603 273.0 
171.042435 149.0 
171.078857 826.0 
172.53479 267.0 
174.431732 226.0 
175.046799 254.0 
178.687988 230.0 
179.519943 208.0 
181.064865 1353.0 
182.432526 117.0 
183.078781 145.0 
184.051895 143.0 
184.084595 133.0 
185.055801 390.0 
186.326599 164.0 
189.164536 113.0 
189.832489 160.0 
190.096207 128.0 
191.134811 188.0 
192.318268 150.0 
193.081268 111.0 
197.060379 282.0 
197.108337 317.0 
198.059906 194.0 
198.693802 210.0 
199.07428 7946.0 
199.547577 131.0 
200.07843 1126.0 
200.349258 153.0 
204.166794 241.0 
205.246384 112.0 
205.547638 268.0 
208.152618 181.0 
209.063751 859.0 
210.066498 677.0 
211.072189 206.0 
212.072144 172.0 
213.051331 434.0 
213.631729 160.0 
218.484314 103.0 
221.511322 243.0 
223.747803 124.0 
224.296738 169.0 
225.947189 181.0 
226.071518 199.0 
226.281448 349.0 
226.690506 192.0 
226.969116 164.0 
227.067795 6190.0 
228.072586 1012.0 
230.580612 160.0 
230.620758 237.0 
231.964661 204.0 
233.149399 349.0 
236.088577 248.0 
237.021484 203.0 
237.053253 938.0 
238.050995 297.0 
238.573059 190.0 
239.04216 176.0 
240.080978 137.0 
241.805969 212.0 
249.993622 287.0 
250.060837 130.0 
250.841812 426.0 
252.083069 82.0 
252.129028 265.0 
252.166519 275.0 
253.049316 238.0 
253.289551 187.0 
253.484314 215.0 
254.018539 80.0 
254.068085 531.0 
254.136353 126.0 
254.297775 205.0 
254.396393 716.0 
254.478638 134.0 
254.511017 181.0 
254.628723 354.0 
254.695007 238.0 
254.74263 92.0 
254.810822 175.0 
254.853363 189.0 
254.907547 398.0 
254.968735 1162.0 
255.064987 581653.0 
255.125153 442.0 
255.171021 417.0 
255.274429 345.0 
255.333939 278.0 
255.40419 189.0 
255.448578 408.0 
255.490494 140.0 
255.57164 79.0 
255.656021 89.0 
255.828003 356.0 
255.941254 202.0 
256.02594 1208.0 
256.068512 80181.0 
256.170563 109.0 
256.253662 98.0 
256.421112 152.0 
256.451141 163.0 
256.508301 157.0 
256.562897 137.0 
256.684418 166.0 
257.003387 130.0 
257.071503 4174.0 
257.153656 136.0 
257.361145 107.0 
257.406677 131.0 
257.506317 187.0 
257.56308 78.0 
257.597321 170.0 
257.731049 84.0 
257.832794 146.0 
257.985443 413.0 
258.042633 324.0 
258.142639 186.0 
258.272552 135.0 
258.319061 113.0 
258.397278 82.0 
258.544403 112.0 
258.884888 132.0 
258.915466 178.0 
258.961609 170.0 
259.078766 106.0 
259.277985 118.0 
260.231659 221.0 
261.312378 220.0 
262.589996 182.0 
265.268677 85.0 
266.137573 130.0 
266.849701 91.0 
267.070312 310.0 
267.425079 93.0 
267.543121 178.0 
267.688416 89.0 
268.064606 113.0 
270.414154 137.0 
270.457031 156.0 
273.776855 239.0 
274.72876 162.0 
278.076477 186.0 
278.323547 152.0 
279.064545 639.0 
279.683563 142.0 
279.919678 115.0 
280.064453 409.0 
281.649384 162.0 
283.062225 352.0 
284.061981 405.0 
285.007294 209.0 
291.065735 276.0 
295.183167 269.0 
297.076782 3994.0 
298.079773 850.0 
299.079498 189.0 
302.951569 213.0 
305.377625 166.0 
307.098297 225.0 
309.079346 126.0 
312.093597 170.0 
317.53302 275.0 
319.100067 312.0 
321.06601 135.0 
323.097992 114.0 
324.09668 201.0 
325.920227 104.0 
326.50531 224.0 
326.540222 120.0 
328.680481 202.0 
329.899658 162.0 
330.489349 114.0 
333.696686 203.0 
335.092102 221.0 
339.091827 218.0 
345.651001 119.0 
346.486359 137.0 
348.195709 129.0 
353.301636 145.0 
357.801422 100.0 
359.610962 190.0 
363.06189 155.0 
363.098389 201.0 
363.714661 173.0 
365.736725 138.0 
367.533264 253.0 
369.864868 118.0 
373.669769 167.0 
378.908081 230.0 
383.113342 960.0 
384.116119 113.0 
387.986084 253.0 
390.453613 471.0 
391.251831 251.0 
394.938599 147.0 
398.260132 85.0 
398.56192 129.0 
398.836517 108.0 
398.974792 84.0 
399.068176 352.0 
399.113739 131.0 
399.304199 113.0 
399.56604 77.0 
399.666992 151.0 
399.775391 299.0 
399.825897 356.0 
399.937134 133.0 
399.989258 231.0 
400.020691 283.0 
400.123169 163.0 
400.155579 257.0 
400.22403 207.0 
400.318237 332.0 
400.48053 286.0 
400.615082 250.0 
400.733032 200.0 
400.810364 769.0 
400.91626 206.0 
400.969208 1010.0 
401.003357 1109.0 
401.123871 364929.0 
401.198608 299.0 
401.256927 314.0 
401.352661 278.0 
401.417938 551.0 
401.456207 230.0 
401.602875 388.0 
401.694305 84.0 
401.860168 100.0 
401.921814 402.0 
401.994568 251.0 
402.040985 437.0 
402.126953 59586.0 
402.19873 97.0 
402.266876 337.0 
402.351868 180.0 
402.462677 165.0 
402.912994 225.0 
403.128754 2550.0 
403.936829 88.0 
404.281464 80.0 
404.375946 109.0 
404.419952 240.0 
404.480255 68.0 
404.598236 113.0 
404.737854 224.0 
404.819427 153.0 
404.909424 283.0 
405.161682 77.0 
405.66748 113.0 
406.08136 160.0 
406.158875 155.0 
421.176758 125.0 
547.078064 356.0 
547.184631 5692.0 
548.183777 2146.0 
548.265747 154.0 
549.180298 136.0 
645.434082 76.0 
738.708069 112.0 
1481.506836 83.0 
1509.012085 266.0 
1834.6875 172.0 
1878.648071 198.0 
END IONS

BEGIN IONS
TITLE=Scan Number: 153
PEPMASS=757.19702
CHARGE=1+
MSLEVEL=2
FILENAME=E12_RE12_01_2868.mzXML
INSTRUMENT=ion trap
SCANS=153
SMILES=CC1OC(OCC2OC(OC3=C(OC4=CC(O)=CC(O)=C4C3=O)C5=CC(O)=C(O)C=C5)C(O)C(O)C2OC(=O)\C=C\C6=CC=C(O)C=C6)C(O)C(O)C1O
INCHIKEY=HLWFQXZBFQLASS-RUDMXATFSA-N
71.04908 573.0 
79.052406 160.0 
81.033401 1667.0 
83.048477 3079.0 
83.954765 148.0 
84.053413 142.0 
84.078949 247.0 
85.027184 2720.0 
86.028511 666.0 
87.044815 155.0 
91.054878 1980.0 
95.048859 162.0 
97.028603 1956.0 
97.405167 282.0 
98.028793 236.0 
99.042557 726.0 
101.023422 220.0 
101.471436 256.0 
106.683517 374.0 
107.048996 4881.0 
107.457497 240.0 
108.052185 357.0 
109.026703 1945.0 
109.075706 212.0 
110.864685 343.0 
111.000229 152.0 
111.044029 2584.0 
112.048409 153.0 
112.139572 162.0 
114.556465 249.0 
115.037849 135.0 
115.765602 176.0 
119.048462 21730.0 
120.034592 128.0 
120.053635 158.0 
121.952103 107.0 
123.042709 683.0 
123.799835 269.0 
127.037338 1198.0 
128.043625 197.0 
128.591705 124.0 
129.052658 1597.0 
129.095612 89.0 
129.25621 91.0 
131.045776 358.0 
131.086304 313.0 
132.724716 101.0 
132.990387 223.0 
133.062454 149.0 
134.06662 155.0 
135.047943 299.0 
136.047318 315.0 
137.021576 291.0 
137.095917 124.0 
138.365799 100.0 
139.0345 188.0 
141.090775 179.0 
141.780151 337.0 
144.036407 266.0 
144.057037 275.0 
145.063248 597.0 
146.093094 82.0 
146.113007 178.0 
146.347427 331.0 
146.536621 296.0 
146.5858 105.0 
146.631241 145.0 
146.658112 221.0 
146.729706 316.0 
146.768082 207.0 
146.884033 232.0 
146.959381 300.0 
147.001678 881.0 
147.043427 365339.0 
147.114166 440.0 
147.212967 156.0 
147.275116 146.0 
147.299179 154.0 
147.354416 90.0 
147.402435 200.0 
147.49147 91.0 
147.646774 139.0 
147.730591 96.0 
148.046967 28218.0 
148.639297 89.0 
148.986679 104.0 
149.021561 136.0 
149.063248 826.0 
149.120514 167.0 
149.166519 103.0 
149.206573 215.0 
149.242279 141.0 
149.277237 118.0 
149.948624 129.0 
150.272858 105.0 
151.037949 4242.0 
153.016342 384.0 
156.191757 101.0 
157.056641 501.0 
158.068039 201.0 
159.037537 446.0 
159.08493 187.0 
160.050552 298.0 
161.059464 1573.0 
163.034622 416.0 
164.616455 79.0 
164.731552 115.0 
164.962006 115.0 
165.02475 481.0 
165.053986 12771.0 
165.130844 131.0 
165.302979 101.0 
166.05864 1607.0 
166.466644 270.0 
167.090897 289.0 
168.082016 159.0 
169.049133 2903.0 
169.593597 94.0 
170.053085 190.0 
170.078491 200.0 
171.054993 122.0 
172.049362 81.0 
173.062057 800.0 
175.069641 116.0 
179.058975 113.0 
181.044968 319.0 
183.083618 93.0 
185.049332 455.0 
185.101791 302.0 
186.107147 230.0 
187.038605 123.0 
187.073837 1724.0 
189.4133 143.0 
190.063263 152.0 
191.029343 116.0 
192.036667 205.0 
195.084824 120.0 
197.05867 869.0 
202.060059 268.0 
207.060867 205.0 
211.051071 245.0 
211.078064 269.0 
212.04747 147.0 
212.074799 132.0 
212.095078 230.0 
213.05777 266.0 
213.090027 1610.0 
215.071716 730.0 
219.026199 134.0 
219.063004 155.0 
220.194077 303.0 
229.051056 419.0 
229.083954 780.0 
231.023727 181.0 
231.062653 551.0 
231.103333 146.0 
232.18161 269.0 
237.088058 339.0 
238.089462 258.0 
239.072906 1243.0 
240.07431 149.0 
242.140396 124.0 
246.358749 296.0 
247.060104 270.0 
249.046021 257.0 
249.076538 892.0 
250.079742 236.0 
257.04422 421.0 
257.080872 12208.0 
257.90564 133.0 
258.080048 1050.0 
260.053436 181.0 
263.81192 132.0 
267.085663 110.0 
271.05603 218.0 
271.082184 187.0 
273.076477 732.0 
275.057404 308.0 
275.092499 1434.0 
276.088715 726.0 
279.052094 122.0 
282.166016 152.0 
285.02652 387.0 
287.05188 216.0 
287.672729 225.0 
287.737274 337.0 
289.072693 143.0 
290.3797 164.0 
291.086517 14529.0 
291.571716 162.0 
292.091919 1815.0 
293.099274 2251.0 
293.38736 114.0 
294.126465 211.0 
294.290588 173.0 
294.990234 160.0 
295.064484 164.0 
295.091583 315.0 
296.165314 208.0 
298.035004 209.0 
302.506073 161.0 
302.589233 90.0 
302.96936 300.0 
303.050232 30527.0 
303.444244 118.0 
303.989471 139.0 
304.049652 3812.0 
305.056122 453.0 
305.781982 80.0 
307.605957 119.0 
307.833649 168.0 
309.024261 139.0 
309.097198 15530.0 
309.685059 103.0 
310.098694 1826.0 
310.388153 205.0 
311.096008 157.0 
312.828247 243.0 
313.093506 657.0 
315.044189 472.0 
316.437592 86.0 
317.059631 159.0 
321.423309 107.0 
324.087128 107.0 
327.053711 522.0 
329.058807 160.0 
333.073303 223.0 
341.090149 97.0 
345.060364 1965.0 
346.064972 365.0 
359.09787 140.0 
365.12677 183.0 
377.067078 137.0 
384.116547 108.0 
385.091156 127.0 
388.073486 143.0 
395.067291 164.0 
401.129517 1014.0 
402.121338 348.0 
407.078125 131.0 
413.078888 384.0 
417.640198 89.0 
419.066345 179.0 
419.135468 3554.0 
420.132172 591.0 
421.072968 73.0 
421.138672 114.0 
431.098572 239.0 
437.144287 1947.0 
438.146484 513.0 
441.244598 121.0 
445.198853 240.0 
448.776031 207.0 
449.111603 550.0 
450.115204 168.0 
455.157776 1004.0 
456.169373 168.0 
501.955902 114.0 
560.236145 116.0 
653.15387 203.0 
677.135498 168.0 
757.358337 86.0 
758.77417 150.0 
1320.013672 120.0 
1390.959473 348.0 
1407.266479 330.0 
1566.331909 253.0 
1697.175171 299.0 
1874.415649 79.0 
1934.859497 183.0 
END IONS

BEGIN IONS
TITLE=Scan Number: 155
PEPMASS=301.10699
CHARGE=1+
MSLEVEL=2
FILENAME=A6_RA6_01_2889.mzXML
INSTRUMENT=ion trap
SCANS=155
SMILES=CC1=CC(O)=C(C)C2=C1C(=O)OC3=C(C)C(O)=CC(C)=C3O2
INCHIKEY=JURQVQJHQONKKH-UHFFFAOYSA-N
75.318962 106.0 
77.03878 195.0 
81.070236 259.0 
83.012955 2184.0 
90.932724 268.0 
91.056343 371.0 
91.843155 273.0 
92.058006 197.0 
95.050591 200.0 
103.056091 527.0 
105.044067 151.0 
105.071358 1280.0 
107.048859 287.0 
109.025818 135.0 
109.047295 231.0 
109.06385 764.0 
115.055038 577.0 
117.069885 333.0 
118.063599 161.0 
118.085327 181.0 
119.083611 319.0 
120.053001 176.0 
121.063919 901.0 
123.03405 143.0 
128.061203 445.0 
129.070663 316.0 
130.074905 321.0 
130.742249 358.0 
131.050217 1527.0 
133.066956 774.0 
133.098984 975.0 
134.051651 225.0 
134.105972 174.0 
135.077347 1460.0 
136.089203 225.0 
140.061478 200.0 
141.071976 230.0 
143.085007 1243.0 
144.050522 172.0 
144.086411 200.0 
144.554855 174.0 
145.063202 451.0 
146.072113 3562.0 
147.047836 193.0 
147.077942 1091.0 
148.051208 358.0 
149.059982 1180.0 
151.079895 258.0 
153.065628 251.0 
153.152252 100.0 
154.771881 233.0 
155.063431 394.0 
156.063766 130.0 
157.065689 89.0 
157.105865 215.0 
158.035812 235.0 
158.068451 735.0 
159.039917 172.0 
160.066315 180.0 
161.060547 1426.0 
161.096313 3067.0 
162.059387 116.0 
162.833755 203.0 
163.03717 315.0 
163.083466 340.0 
164.041824 298.0 
165.005936 208.0 
165.054504 1979.0 
166.057861 289.0 
166.087097 201.0 
168.005188 129.0 
168.08786 151.0 
171.078873 1221.0 
172.089569 365.0 
173.059708 1103.0 
173.093201 347.0 
174.067429 5870.0 
174.100418 99.0 
174.812622 260.0 
175.073227 2120.0 
176.082672 113.0 
177.052551 3023.0 
178.060837 229.0 
181.068253 111.0 
184.047791 174.0 
184.092575 403.0 
185.052261 167.0 
185.089966 203.0 
187.031357 145.0 
187.074463 604.0 
188.083496 544.0 
189.051453 206.0 
189.089401 9694.0 
190.06279 173.0 
190.099716 1046.0 
190.87384 142.0 
191.075058 344.0 
195.061417 216.0 
199.046844 276.0 
199.07428 663.0 
200.047409 110.0 
200.079742 100.0 
201.050247 271.0 
201.086823 99.0 
202.064926 1776.0 
202.101501 175.0 
203.070404 248.0 
203.109299 321.0 
204.096786 303.0 
205.197113 121.0 
209.098831 178.0 
210.103455 240.0 
211.079971 546.0 
212.086639 401.0 
214.059708 170.0 
216.075531 252.0 
216.130692 79.0 
216.188721 319.0 
216.411835 243.0 
216.622559 224.0 
216.94873 216.0 
217.002502 153.0 
217.037445 354.0 
217.085144 70576.0 
217.128952 127.0 
217.259995 189.0 
217.443909 91.0 
217.639267 165.0 
217.790924 107.0 
218.034225 81.0 
218.090332 6909.0 
218.869339 155.0 
219.092072 156.0 
219.279297 104.0 
219.787766 124.0 
220.045166 99.0 
223.872849 267.0 
225.101349 120.0 
226.213516 140.0 
227.064621 198.0 
227.104156 601.0 
227.310806 134.0 
229.083771 202.0 
231.106445 172.0 
240.07933 239.0 
241.085342 553.0 
242.097534 590.0 
242.87851 317.0 
243.041016 195.0 
243.102997 134.0 
245.01973 158.0 
245.0811 15877.0 
246.08609 1628.0 
247.948715 119.0 
255.099045 436.0 
256.105774 132.0 
257.078308 363.0 
258.0802 265.0 
259.093658 232.0 
268.075714 428.0 
270.086151 204.0 
272.065674 172.0 
273.108521 929.0 
281.081482 84.0 
283.091766 1165.0 
283.453125 133.0 
283.995514 79.0 
285.067139 415.0 
286.081909 434.0 
301.025604 476.0 
301.105377 8527.0 
302.044739 169.0 
302.108795 1589.0 
322.032532 136.0 
327.68277 82.0 
1782.647583 267.0 
END IONS

BEGIN IONS
TITLE=Scan Number: 156
PEPMASS=318.134
CHARGE=1+
MSLEVEL=2
FILENAME=A6_RA6_01_2889.mzXML
INSTRUMENT=ion trap
SCANS=156
SMILES=CC1=CC(O)=C(C)C2=C1C(=O)OC3=C(C)C(O)=CC(C)=C3O2
INCHIKEY=JURQVQJHQONKKH-UHFFFAOYSA-N
83.011726 1403.0 
84.961182 750.0 
91.050316 207.0 
92.304634 240.0 
105.070023 328.0 
106.074501 171.0 
107.052757 472.0 
109.030518 197.0 
109.23558 104.0 
110.008614 199.0 
111.013756 136.0 
116.991035 263.0 
119.082985 340.0 
121.102806 153.0 
128.067001 237.0 
129.070145 136.0 
133.065765 466.0 
133.104324 169.0 
135.078262 398.0 
143.081375 501.0 
143.325638 343.0 
145.333405 104.0 
146.070847 678.0 
148.049545 272.0 
149.052261 240.0 
150.059082 192.0 
153.069092 213.0 
157.064484 267.0 
158.072342 844.0 
161.052628 145.0 
161.097488 1940.0 
162.06514 195.0 
162.102219 177.0 
162.975784 90.0 
165.013397 127.0 
165.055527 1203.0 
167.086487 213.0 
170.07605 216.0 
171.080795 192.0 
173.094757 166.0 
174.033813 196.0 
174.065155 900.0 
175.075012 416.0 
176.04509 160.0 
176.065933 149.0 
177.052063 943.0 
178.046341 165.0 
180.978821 321.0 
181.039749 191.0 
181.54808 238.0 
183.047379 211.0 
186.108673 109.0 
189.05896 818.0 
189.091522 5072.0 
190.092468 505.0 
191.060501 131.0 
197.064972 214.0 
198.064529 185.0 
199.069138 185.0 
201.090454 103.0 
203.064575 171.0 
203.086121 180.0 
204.109161 196.0 
205.034348 208.0 
205.084839 137.0 
209.095139 175.0 
210.556107 218.0 
216.072021 250.0 
217.038651 169.0 
217.084625 21589.0 
217.515076 291.0 
218.088287 3532.0 
220.613068 108.0 
225.088272 117.0 
227.073105 221.0 
227.324936 83.0 
231.112991 201.0 
240.555344 181.0 
240.98587 130.0 
241.087341 534.0 
242.088486 750.0 
245.079865 6003.0 
246.08139 116.0 
255.107559 326.0 
258.088776 230.0 
259.090515 199.0 
273.11203 257.0 
283.071106 165.0 
284.10022 119.0 
285.080292 115.0 
286.081787 412.0 
293.080963 161.0 
300.02243 120.0 
301.105957 10221.0 
302.07959 148.0 
302.109985 1398.0 
332.118042 139.0 
375.117126 118.0 
1918.845337 188.0 
END IONS

BEGIN IONS
TITLE=Scan Number: 158
PEPMASS=415.17099
CHARGE=1+
MSLEVEL=2
FILENAME=A6_RA6_01_2889.mzXML
INSTRUMENT=ion trap
SCANS=158
SMILES=CC(O)C(O)(C(C)O)C(=O)OCC1=CC(O)=CC=C1NC(=O)CCC(N)C(O)=O
INCHIKEY=JMRJLJOBHHWYIV-UHFFFAOYSA-N
70.591133 151.0 
72.846642 151.0 
72.975845 250.0 
73.527191 265.0 
75.046822 155.0 
77.041458 171.0 
78.427223 336.0 
79.719276 200.0 
82.028137 128.0 
82.065346 187.0 
84.04454 18055.0 
85.045784 1241.0 
85.696335 267.0 
86.061737 219.0 
87.323448 166.0 
88.039757 279.0 
90.589287 209.0 
92.526848 162.0 
93.024315 219.0 
93.058441 221.0 
94.028664 526.0 
94.065567 3089.0 
95.01915 269.0 
95.050056 1433.0 
96.043213 161.0 
96.193016 188.0 
97.72863 206.0 
100.588257 264.0 
101.421707 65.0 
101.95166 309.0 
102.056969 917.0 
102.908409 176.0 
104.0513 222.0 
105.047272 691.0 
105.985725 308.0 
106.010864 271.0 
106.048492 410.0 
106.06678 730.0 
107.052689 799.0 
108.04567 303.0 
110.040535 93.0 
110.062805 326.0 
111.064049 236.0 
111.397171 85.0 
112.041664 562.0 
113.021431 630.0 
113.236191 232.0 
114.055435 2325.0 
114.516945 184.0 
115.055145 166.0 
115.901917 268.0 
116.048828 128.0 
116.808723 171.0 
118.06472 529.0 
118.969597 208.0 
120.043602 351.0 
121.033356 416.0 
121.054504 208.0 
121.081779 177.0 
121.369217 166.0 
121.773056 145.0 
121.794319 212.0 
121.859001 251.0 
121.922806 270.0 
122.003731 160.0 
122.060295 207132.0 
122.118172 154.0 
122.235054 129.0 
122.515488 152.0 
122.695793 73.0 
122.812897 215.0 
123.027954 277.0 
123.063721 11789.0 
123.281395 108.0 
123.823807 106.0 
124.047104 110.0 
124.074219 177.0 
124.135918 61.0 
124.221245 84.0 
126.446274 210.0 
129.841949 94.0 
129.895248 320.0 
130.049088 1077.0 
130.090347 63.0 
130.289139 236.0 
131.05574 383.0 
131.074081 451.0 
132.046265 736.0 
132.080017 1143.0 
133.052948 1769.0 
134.060303 16326.0 
134.350494 132.0 
135.064362 2386.0 
136.039139 172.0 
136.074081 433.0 
136.174515 204.0 
136.527756 140.0 
137.708405 304.0 
138.254898 264.0 
140.042221 146.0 
140.069855 679.0 
141.079926 243.0 
141.846268 224.0 
142.048691 636.0 
142.065262 687.0 
143.055664 313.0 
143.87944 59.0 
144.065659 694.0 
145.055862 544.0 
146.059998 9223.0 
146.62117 279.0 
146.790924 91.0 
147.034302 157.0 
147.064789 2230.0 
147.234909 71.0 
147.986755 332.0 
148.039322 1205.0 
148.073608 1502.0 
148.617584 136.0 
148.799484 93.0 
149.041626 218.0 
149.074646 158.0 
149.539673 278.0 
150.054657 974.0 
154.166092 147.0 
155.057068 184.0 
156.378616 101.0 
158.061478 135.0 
158.929916 103.0 
159.059311 3602.0 
160.075424 14733.0 
160.765137 196.0 
161.048721 519.0 
161.073349 5634.0 
162.029556 240.0 
162.053421 706.0 
162.091629 651.0 
162.409042 131.0 
163.060242 234.0 
163.085098 198.0 
164.071121 1284.0 
166.250275 268.0 
167.91333 343.0 
167.957108 365.0 
169.072922 138.0 
170.060471 2135.0 
171.066193 574.0 
172.072784 1280.0 
172.443359 242.0 
172.538925 132.0 
173.001724 240.0 
173.068939 143.0 
174.054764 338.0 
174.464462 342.0 
175.058792 303.0 
175.08905 332.0 
176.071533 4457.0 
176.58429 145.0 
177.070557 880.0 
178.085785 5185.0 
179.089493 684.0 
181.93454 134.0 
182.451218 99.0 
183.493103 188.0 
184.582672 176.0 
185.071243 910.0 
186.046967 168.0 
186.079514 185.0 
186.396927 90.0 
186.44104 241.0 
186.983322 350.0 
187.086945 120586.0 
187.504623 140.0 
187.705536 109.0 
187.913635 67.0 
187.982849 350.0 
188.039825 646.0 
188.070862 20453.0 
188.091385 16590.0 
188.150787 104.0 
188.218796 86.0 
188.330856 119.0 
189.100235 2290.0 
189.167953 68.0 
189.428314 113.0 
189.57756 61.0 
189.611877 184.0 
189.943512 162.0 
190.086227 2081.0 
190.463211 107.0 
190.637497 116.0 
191.094208 144.0 
192.073486 411.0 
192.429016 284.0 
195.381149 95.0 
196.189499 87.0 
196.681427 111.0 
197.040451 217.0 
197.076157 466.0 
198.060928 244.0 
203.085526 426.0 
204.067612 131.0 
205.096893 9740.0 
206.044006 186.0 
206.080963 8897.0 
207.087616 1589.0 
208.688141 228.0 
214.307907 171.0 
215.053055 135.0 
215.082275 2812.0 
215.887253 115.0 
215.995682 268.0 
216.065338 3315.0 
216.254486 82.0 
217.063919 248.0 
220.084732 994.0 
221.493042 228.0 
222.311615 110.0 
231.080292 893.0 
231.610947 219.0 
231.70018 150.0 
232.064529 478.0 
232.330093 175.0 
232.457047 241.0 
232.629623 135.0 
232.780701 197.0 
232.953873 137.0 
233.02887 410.0 
233.092468 158489.0 
233.172623 335.0 
233.3396 101.0 
233.385147 147.0 
233.455597 99.0 
233.587952 80.0 
233.860855 123.0 
233.895004 148.0 
233.979187 260.0 
234.02063 475.0 
234.077423 31443.0 
234.144394 143.0 
234.182877 59.0 
234.483002 130.0 
234.646729 58.0 
234.91684 92.0 
234.97348 67.0 
235.026993 153.0 
235.079208 3599.0 
235.568527 166.0 
236.062805 128.0 
236.870514 231.0 
243.699768 60.0 
249.045822 205.0 
249.504684 238.0 
250.290131 116.0 
250.425613 278.0 
250.458344 159.0 
250.603821 88.0 
250.700012 102.0 
250.789886 122.0 
250.964584 115.0 
251.103195 160438.0 
251.312866 163.0 
251.345749 62.0 
251.416733 96.0 
251.578522 210.0 
251.685501 96.0 
251.825638 74.0 
251.907654 106.0 
252.106201 16710.0 
252.473984 92.0 
252.594727 88.0 
252.732407 153.0 
253.105682 571.0 
253.354645 58.0 
253.987579 105.0 
254.040512 89.0 
254.06543 176.0 
254.368851 70.0 
255.78418 122.0 
263.730835 83.0 
264.407959 104.0 
269.080353 257.0 
269.105469 398.0 
274.112823 139.0 
278.009369 101.0 
321.60849 96.0 
332.091309 142.0 
352.138092 299.0 
353.134064 297.0 
397.158997 219.0 
398.143066 135.0 
406.234436 148.0 
413.773956 244.0 
415.174744 8253.0 
416.179779 1608.0 
758.110718 186.0 
1012.065613 224.0 
1208.220215 135.0 
1499.46814 242.0 
1730.183716 198.0 
1762.622681 169.0 
1763.102295 198.0 
1798.770996 225.0 
1824.938965 161.0 
1852.705688 282.0 
1867.300171 245.0 
1913.434082 258.0 
1945.568237 294.0 
1960.358154 242.0 
1984.182983 109.0 
END IONS

BEGIN IONS
TITLE=Scan Number: 159
PEPMASS=397.16
CHARGE=1+
MSLEVEL=2
FILENAME=A6_RA6_01_2889.mzXML
INSTRUMENT=ion trap
SCANS=159
SMILES=CC(O)C(O)(C(C)O)C(=O)OCC1=CC(O)=CC=C1NC(=O)CCC(N)C(O)=O
INCHIKEY=JMRJLJOBHHWYIV-UHFFFAOYSA-N
103.268219 111.0 
106.064941 88.0 
117.418495 273.0 
122.048279 284.0 
134.026901 211.0 
134.060913 2038.0 
135.062378 401.0 
144.070175 343.0 
146.059845 430.0 
148.038849 215.0 
159.068542 430.0 
160.058121 404.0 
160.076859 855.0 
161.071854 175.0 
170.05954 139.0 
171.070343 122.0 
186.964874 143.0 
187.086609 10309.0 
187.266663 84.0 
188.090637 1239.0 
189.101639 181.0 
190.109039 155.0 
197.069931 193.0 
210.340576 178.0 
215.083176 329.0 
220.088821 102.0 
231.074341 252.0 
233.091858 13642.0 
234.101212 1499.0 
235.900406 160.0 
240.994171 196.0 
243.107666 211.0 
397.159485 3097.0 
398.1698 705.0 
END IONS

BEGIN IONS
TITLE=Scan Number: 160
PEPMASS=419.20599
CHARGE=1+
MSLEVEL=2
FILENAME=A6_RA6_01_2889.mzXML
INSTRUMENT=ion trap
SCANS=160
SMILES=CC[C@H]1O[C@@H]2O[C@H](\C=C\C=C\C=C\C3=C(C)C(OC)=CC(=O)O3)[C@H](O)[C@]2(C)[C@@]1(C)O
INCHIKEY=GPXPJKFETRLRAS-AHUKKWBBSA-N
70.038452 190.0 
71.050003 171.0 
78.046135 131.0 
79.017288 176.0 
79.055016 1887.0 
80.264557 61.0 
81.033005 660.0 
81.072678 940.0 
81.771095 174.0 
82.103645 215.0 
83.013527 298.0 
83.049362 10226.0 
83.086685 123.0 
84.05246 210.0 
84.447388 189.0 
84.935661 231.0 
85.029427 727.0 
85.063957 1285.0 
86.438576 433.0 
87.045731 154.0 
91.054428 3918.0 
92.057037 426.0 
93.034164 299.0 
93.070465 1364.0 
94.286232 151.0 
95.048271 1469.0 
95.083725 477.0 
96.059326 282.0 
96.10244 259.0 
96.364319 93.0 
97.026764 68.0 
97.064888 532.0 
97.40358 349.0 
98.104774 194.0 
99.043221 171.0 
101.023643 171.0 
101.058502 618.0 
102.459587 281.0 
103.042793 142.0 
103.07724 216.0 
104.065094 221.0 
104.749069 258.0 
105.017746 126.0 
105.033981 897.0 
105.071426 1444.0 
106.041206 182.0 
107.048286 1729.0 
107.085823 800.0 
108.059296 563.0 
108.090637 387.0 
109.028526 503.0 
109.0653 861.0 
110.070168 265.0 
110.454582 178.0 
111.043938 1925.0 
111.080566 701.0 
112.053741 197.0 
112.498756 120.0 
113.060783 533.0 
115.056374 2209.0 
116.061058 803.0 
117.069702 2569.0 
118.041641 227.0 
118.078865 185.0 
119.049728 5044.0 
119.086037 528.0 
120.027557 133.0 
120.047966 259.0 
120.267418 175.0 
121.028931 345.0 
121.065208 1879.0 
122.031235 195.0 
122.071915 748.0 
123.043259 1065.0 
123.080818 1576.0 
124.051865 904.0 
124.080009 266.0 
124.71286 196.0 
125.044868 769.0 
125.059311 1284.0 
125.096832 6463.0 
126.067017 384.0 
126.099609 940.0 
126.926628 243.0 
127.03894 838.0 
127.059311 631.0 
127.586395 126.0 
128.062027 4512.0 
129.070663 4142.0 
130.071945 180.0 
131.046783 324.0 
131.085464 2277.0 
131.127121 195.0 
131.17836 135.0 
131.318176 64.0 
132.056732 736.0 
133.063721 1565.0 
133.105011 318.0 
134.069794 151.0 
134.891388 228.0 
135.045502 1505.0 
135.079773 1064.0 
136.046783 156.0 
137.061142 2487.0 
137.095581 1238.0 
137.133514 181.0 
138.068283 1782.0 
138.858566 215.0 
139.002075 225.0 
139.0392 25478.0 
139.077988 958.0 
140.042877 2826.0 
140.085602 214.0 
141.036148 290.0 
141.068115 1682.0 
142.077423 2275.0 
143.085587 5576.0 
144.05835 1093.0 
144.090897 287.0 
144.463791 215.0 
145.064987 4526.0 
145.103577 1047.0 
146.045547 218.0 
146.072372 970.0 
146.705933 168.0 
147.043579 3784.0 
147.07962 699.0 
147.499924 164.0 
148.052139 428.0 
148.085892 651.0 
149.022125 207.0 
149.059875 1375.0 
149.09552 1579.0 
150.071457 569.0 
150.103424 554.0 
151.039948 186.0 
151.075119 2672.0 
152.063446 958.0 
153.069321 4531.0 
154.071243 3118.0 
155.061707 3878.0 
155.08374 2768.0 
155.610611 162.0 
156.081894 444.0 
157.064178 1894.0 
157.103821 632.0 
158.071533 2025.0 
159.036835 141.0 
159.080688 4513.0 
160.051239 751.0 
160.087967 526.0 
160.308517 74.0 
161.061539 2031.0 
161.097733 984.0 
161.148575 105.0 
161.426178 94.0 
162.064957 395.0 
162.100052 372.0 
163.075104 746.0 
164.042068 193.0 
164.085602 632.0 
164.383942 201.0 
165.055405 3938.0 
166.057404 402.0 
166.097443 125.0 
167.070801 5426.0 
168.04921 371.0 
168.077866 234.0 
168.123169 165.0 
168.36058 131.0 
169.066162 1574.0 
169.102798 369.0 
169.215164 70.0 
170.045074 121.0 
170.072876 1325.0 
170.938736 230.0 
171.042694 254.0 
171.081467 6251.0 
172.089172 2523.0 
173.022003 124.0 
173.059738 692.0 
173.095261 1229.0 
174.070541 2707.0 
174.103226 321.0 
174.988037 160.0 
175.033539 126.0 
175.073532 2578.0 
175.112427 1385.0 
175.176498 73.0 
176.048904 278.0 
176.081863 1044.0 
176.147202 140.0 
176.806808 135.0 
177.025314 207.0 
177.055634 1731.0 
177.088257 1238.0 
177.380127 110.0 
178.062378 797.0 
178.106873 395.0 
178.446747 149.0 
179.035614 194.0 
179.07431 1621.0 
179.572922 192.0 
180.079361 1698.0 
180.754883 88.0 
180.838791 135.0 
181.06366 1673.0 
181.100128 1038.0 
181.715042 171.0 
182.069427 1402.0 
182.846771 201.0 
183.03891 86.0 
183.078934 941.0 
183.119766 905.0 
183.860382 161.0 
184.04985 995.0 
185.06163 2094.0 
185.097488 1574.0 
186.066879 409.0 
186.09993 616.0 
187.028931 239.0 
187.072311 2548.0 
187.11261 448.0 
188.083679 2833.0 
188.122681 158.0 
189.0616 281.0 
189.089813 1511.0 
190.048889 117.0 
190.076981 131.0 
190.97493 225.0 
191.031693 240.0 
191.070435 4695.0 
192.048141 256.0 
192.07811 462.0 
193.085709 4015.0 
194.087738 428.0 
195.072723 598.0 
195.447678 160.0 
195.838837 297.0 
196.071762 200.0 
197.058044 96.0 
197.096069 1624.0 
197.904861 225.0 
198.067368 1831.0 
198.108658 263.0 
199.076828 3750.0 
200.081131 1180.0 
200.120544 101.0 
201.056107 304.0 
201.092514 699.0 
201.126083 155.0 
201.973892 68.0 
202.101273 675.0 
202.138199 271.0 
203.107849 6692.0 
203.41748 155.0 
204.07074 140.0 
204.107468 1137.0 
205.087128 1848.0 
205.120712 364.0 
206.09343 430.0 
207.090271 146.0 
207.115494 207.0 
208.075729 193.0 
209.060944 1134.0 
209.101471 726.0 
209.619293 86.0 
210.060684 169.0 
210.10881 566.0 
210.632034 115.0 
211.044983 130.0 
211.078064 167.0 
211.110519 556.0 
212.080597 430.0 
212.854782 136.0 
213.048065 352.0 
213.089005 1658.0 
214.102859 600.0 
215.108307 1952.0 
215.146408 106.0 
216.076096 1875.0 
216.184662 244.0 
217.036499 240.0 
217.085342 3864.0 
218.0495 183.0 
218.089005 880.0 
219.071152 178.0 
219.100418 3912.0 
219.940491 76.0 
220.108719 167.0 
221.085052 949.0 
221.626648 95.0 
222.078735 345.0 
222.109268 135.0 
223.040237 102.0 
223.072189 255.0 
223.096588 328.0 
224.080887 268.0 
224.123596 119.0 
226.007339 169.0 
226.065063 117.0 
226.104065 224.0 
227.070236 1347.0 
227.144196 112.0 
228.634186 218.0 
229.088074 196.0 
229.123093 240.0 
229.919815 195.0 
230.098602 411.0 
231.101486 18960.0 
231.500702 124.0 
232.107513 2925.0 
233.057343 69.0 
233.084656 100.0 
233.112808 759.0 
234.122147 159.0 
234.186905 97.0 
235.097092 208.0 
237.090591 340.0 
238.095917 368.0 
238.54866 98.0 
239.112808 170.0 
240.111877 118.0 
240.158676 198.0 
240.224838 144.0 
240.360367 131.0 
241.08609 1776.0 
241.147202 158.0 
241.262283 80.0 
242.088409 304.0 
243.061707 168.0 
243.103882 486.0 
243.139221 376.0 
244.057037 363.0 
244.213654 105.0 
245.053406 221.0 
245.105179 101.0 
247.084183 342.0 
248.0849 428.0 
248.105576 677.0 
249.088852 839.0 
249.107971 849.0 
250.10907 153.0 
251.101486 205.0 
253.118378 334.0 
255.096924 203.0 
255.142731 115.0 
257.121033 144.0 
258.579651 195.0 
258.63623 111.0 
259.096619 19325.0 
259.143433 146.0 
259.614929 109.0 
259.928802 66.0 
259.964966 82.0 
260.032166 297.0 
260.10257 2865.0 
261.113495 1747.0 
262.118988 601.0 
264.056152 252.0 
264.550018 192.0 
265.087006 416.0 
265.116394 227.0 
266.09201 168.0 
267.018311 94.0 
267.174744 112.0 
269.102386 188.0 
270.989594 109.0 
271.133728 1162.0 
272.137817 669.0 
273.149139 191.0 
274.131409 160.0 
274.412964 188.0 
275.206116 75.0 
275.358612 118.0 
276.070038 68.0 
276.927673 241.0 
277.046661 216.0 
277.108734 7390.0 
278.052795 171.0 
278.111481 563.0 
279.136017 250.0 
280.094025 143.0 
281.117584 490.0 
286.124084 189.0 
286.158997 126.0 
286.200531 260.0 
287.129059 149.0 
289.091858 141.0 
289.141541 871.0 
289.36499 77.0 
290.143524 270.0 
291.06131 207.0 
292.071228 347.0 
296.051819 124.0 
296.481659 218.0 
297.118347 267.0 
298.122711 333.0 
298.408081 95.0 
299.128204 5602.0 
300.130371 377.0 
301.040283 86.0 
301.139618 726.0 
301.183777 137.0 
302.093323 183.0 
302.141205 163.0 
304.066132 135.0 
309.072479 174.0 
311.155151 190.0 
311.202789 133.0 
312.26535 154.0 
313.073853 117.0 
315.12323 327.0 
316.1297 229.0 
317.139282 7481.0 
318.096619 135.0 
318.141174 865.0 
319.150665 164.0 
325.143951 142.0 
327.094269 250.0 
327.154266 206.0 
330.184662 179.0 
331.148315 148.0 
331.18924 63.0 
341.190094 363.0 
353.179718 163.0 
355.188324 539.0 
365.097412 86.0 
365.17392 271.0 
369.087494 102.0 
370.094177 1112.0 
372.168762 153.0 
383.179169 441.0 
384.192444 155.0 
387.164764 170.0 
395.717834 179.0 
401.197876 388.0 
404.981445 74.0 
408.467987 131.0 
412.371582 321.0 
412.589539 205.0 
415.206268 147.0 
417.860718 83.0 
418.296844 100.0 
418.533844 157.0 
418.693481 265.0 
418.785858 158.0 
419.007599 271.0 
419.089813 214.0 
419.207794 64191.0 
419.775543 170.0 
419.86264 166.0 
419.977051 172.0 
420.152557 228.0 
420.212006 10939.0 
420.678864 73.0 
421.213562 281.0 
423.069061 67.0 
479.818237 63.0 
543.783752 95.0 
574.988342 142.0 
700.270203 86.0 
1640.740112 229.0 
1643.068848 240.0 
1734.745728 279.0 
1983.211548 155.0 
1999.628052 149.0 
END IONS

BEGIN IONS
TITLE=Scan Number: 161
PEPMASS=436.233
CHARGE=1+
MSLEVEL=2
FILENAME=A6_RA6_01_2889.mzXML
INSTRUMENT=ion trap
SCANS=161
SMILES=CC[C@H]1O[C@@H]2O[C@H](\C=C\C=C\C=C\C3=C(C)C(OC)=CC(=O)O3)[C@H](O)[C@]2(C)[C@@]1(C)O
INCHIKEY=GPXPJKFETRLRAS-AHUKKWBBSA-N
70.604271 302.0 
71.012764 172.0 
73.351585 213.0 
76.960815 247.0 
79.05349 759.0 
81.033318 1071.0 
81.069679 265.0 
83.04924 3035.0 
84.049469 170.0 
85.029488 611.0 
86.497086 348.0 
90.043442 119.0 
91.054642 1809.0 
92.062241 179.0 
93.031006 675.0 
93.05674 208.0 
94.206757 330.0 
95.047653 1513.0 
95.08699 517.0 
96.180588 252.0 
97.024918 216.0 
97.06115 287.0 
99.08007 84.0 
101.053352 203.0 
103.051559 941.0 
103.07827 406.0 
105.035759 2370.0 
105.070465 811.0 
107.045517 533.0 
107.084389 127.0 
107.341232 129.0 
109.063034 567.0 
110.034157 122.0 
111.045502 971.0 
111.079124 125.0 
112.044266 151.0 
112.218872 163.0 
112.997467 228.0 
113.059692 355.0 
115.053986 1642.0 
116.057198 200.0 
117.069504 1332.0 
119.049553 2955.0 
119.086601 199.0 
120.05056 327.0 
120.480164 188.0 
120.551132 107.0 
121.06443 1129.0 
122.023117 233.0 
122.070648 210.0 
123.042717 680.0 
123.078766 478.0 
124.046616 380.0 
124.20224 183.0 
125.059662 1629.0 
125.096802 2972.0 
126.068115 545.0 
126.100372 396.0 
127.040329 124.0 
128.061844 2633.0 
129.066925 1389.0 
130.076935 313.0 
131.046463 319.0 
131.084503 1105.0 
133.024811 351.0 
133.064774 1461.0 
133.090118 289.0 
135.046524 543.0 
135.076874 437.0 
135.119843 126.0 
136.087357 207.0 
137.058823 446.0 
137.095261 2442.0 
138.067886 1907.0 
138.097092 414.0 
139.03923 12095.0 
139.075333 264.0 
140.041656 653.0 
141.054993 811.0 
142.076309 757.0 
143.025558 341.0 
143.058136 673.0 
143.085693 2653.0 
143.838058 308.0 
144.059921 612.0 
144.08548 642.0 
145.029144 255.0 
145.064896 2212.0 
145.098129 796.0 
146.010818 109.0 
146.069473 737.0 
146.108032 187.0 
147.045471 3907.0 
147.081635 466.0 
148.044052 690.0 
148.077316 100.0 
149.061218 459.0 
149.097687 736.0 
149.132095 108.0 
149.159698 159.0 
150.104782 318.0 
151.074081 1802.0 
151.113495 141.0 
152.063477 478.0 
153.035645 313.0 
153.070526 2018.0 
154.065735 964.0 
155.02803 199.0 
155.063339 1322.0 
155.08493 2032.0 
155.81749 124.0 
156.059952 367.0 
156.090851 305.0 
156.349792 90.0 
157.062225 914.0 
157.102051 240.0 
158.071518 539.0 
159.039948 228.0 
159.079849 912.0 
160.084641 664.0 
161.064453 284.0 
161.096085 879.0 
162.067764 342.0 
163.075256 949.0 
163.117981 222.0 
163.392517 99.0 
165.061447 1164.0 
165.365921 214.0 
166.075134 565.0 
167.069397 491.0 
168.059296 519.0 
168.088516 215.0 
168.615417 231.0 
169.063126 1573.0 
170.025192 171.0 
170.073975 556.0 
170.104874 204.0 
170.137344 176.0 
170.224014 101.0 
171.037277 200.0 
171.079376 3957.0 
172.084503 1117.0 
172.634369 235.0 
173.028046 430.0 
173.063431 626.0 
173.096832 882.0 
174.061722 263.0 
174.105682 171.0 
175.026382 340.0 
175.071823 1677.0 
175.106598 819.0 
176.044556 305.0 
176.079132 242.0 
177.054794 923.0 
177.089981 470.0 
177.122971 170.0 
177.805603 212.0 
178.03447 233.0 
178.057922 192.0 
178.077591 234.0 
179.071442 1056.0 
180.081619 523.0 
181.061462 1032.0 
181.097687 186.0 
182.070709 793.0 
183.038895 344.0 
183.081055 1131.0 
183.119049 546.0 
183.723526 298.0 
184.049347 503.0 
184.077301 327.0 
185.040833 128.0 
185.0625 1002.0 
185.094894 569.0 
185.305664 93.0 
186.058151 108.0 
186.099197 504.0 
187.046738 144.0 
187.074432 1705.0 
187.111282 510.0 
188.081924 2586.0 
188.11937 303.0 
189.092865 1584.0 
190.019073 94.0 
190.290588 195.0 
191.069107 3769.0 
191.111984 381.0 
191.898712 143.0 
192.071274 269.0 
192.0896 323.0 
193.047379 494.0 
193.0905 1119.0 
194.090637 220.0 
195.07756 462.0 
195.107208 370.0 
196.091324 105.0 
196.368011 124.0 
197.097488 499.0 
198.068985 978.0 
199.073288 5388.0 
199.106689 627.0 
200.079193 1689.0 
201.053253 336.0 
201.098404 450.0 
201.130234 446.0 
202.059021 108.0 
203.081131 673.0 
203.105515 5014.0 
203.272781 144.0 
204.071472 113.0 
204.107056 812.0 
204.496414 311.0 
205.083221 346.0 
207.08432 164.0 
207.115341 159.0 
208.088318 144.0 
209.064545 348.0 
210.108109 364.0 
211.111252 880.0 
213.045761 203.0 
213.064072 305.0 
213.089935 2532.0 
214.09198 202.0 
215.067108 341.0 
215.107941 1025.0 
216.076736 956.0 
216.104034 119.0 
217.083969 2726.0 
217.120575 128.0 
218.0867 211.0 
219.067673 469.0 
219.10173 582.0 
219.815781 250.0 
220.069427 391.0 
220.106812 128.0 
220.131577 114.0 
221.087753 695.0 
221.129272 100.0 
222.099976 585.0 
223.072678 151.0 
223.098068 274.0 
224.080246 189.0 
224.115189 123.0 
225.084183 539.0 
225.12706 222.0 
226.061768 152.0 
226.100586 172.0 
227.042145 153.0 
227.070892 869.0 
227.107651 704.0 
228.075592 185.0 
229.083099 278.0 
229.130127 354.0 
229.876114 117.0 
231.013397 239.0 
231.041046 416.0 
231.100357 17206.0 
231.208908 195.0 
231.48851 103.0 
231.526535 239.0 
231.727203 122.0 
232.103836 2363.0 
232.146393 84.0 
233.080536 349.0 
233.110443 655.0 
234.107681 205.0 
235.088928 258.0 
235.13031 169.0 
237.060135 151.0 
237.088562 154.0 
237.128632 262.0 
238.100006 484.0 
239.106735 986.0 
240.112808 300.0 
241.086273 1090.0 
241.123215 279.0 
241.8974 188.0 
242.08754 433.0 
242.586914 233.0 
243.098557 346.0 
244.075653 469.0 
244.121552 245.0 
245.080734 477.0 
248.103516 529.0 
249.093155 387.0 
250.13765 270.0 
253.092209 353.0 
253.125336 531.0 
255.106506 287.0 
257.116241 378.0 
257.664551 132.0 
258.118317 187.0 
258.37674 151.0 
258.936401 192.0 
258.99527 357.0 
259.094666 31844.0 
259.170898 112.0 
259.938141 101.0 
260.099945 5324.0 
261.106659 834.0 
261.837524 95.0 
263.127228 411.0 
265.089874 159.0 
265.125244 268.0 
266.085999 471.0 
267.09726 330.0 
267.139435 181.0 
269.119415 381.0 
269.177765 703.0 
270.120117 171.0 
271.130798 1352.0 
272.136322 534.0 
274.120758 201.0 
275.12619 433.0 
276.712555 168.0 
277.015411 202.0 
277.105804 11945.0 
278.077362 175.0 
278.114227 683.0 
278.39743 107.0 
280.363342 219.0 
281.113617 1513.0 
281.150879 247.0 
282.119171 255.0 
283.13443 1180.0 
284.135773 92.0 
287.129456 442.0 
287.166931 148.0 
288.140289 171.0 
289.145935 651.0 
294.114777 176.0 
297.114044 463.0 
298.130249 108.0 
298.84021 150.0 
299.00885 201.0 
299.080902 352.0 
299.126953 15790.0 
299.898132 165.0 
300.130493 1720.0 
300.196075 107.0 
301.144379 315.0 
303.161865 154.0 
306.122925 156.0 
309.144562 786.0 
310.148071 289.0 
311.161102 114.0 
313.184387 287.0 
315.11969 178.0 
317.086884 123.0 
317.134888 1851.0 
318.135529 263.0 
319.155365 87.0 
323.1586 193.0 
327.151337 111.0 
332.119385 173.0 
333.147247 157.0 
337.176849 726.0 
339.831818 151.0 
341.175171 2752.0 
342.055054 82.0 
342.152466 158.0 
343.18573 488.0 
349.095856 130.0 
354.195709 301.0 
355.188873 1238.0 
356.253815 183.0 
365.169373 1033.0 
383.147339 309.0 
383.180939 1734.0 
384.198334 112.0 
401.194519 370.0 
406.161804 114.0 
419.126953 158.0 
419.19809 420.0 
420.210327 184.0 
423.10437 238.0 
436.187714 173.0 
437.219604 92.0 
437.295349 164.0 
1517.528931 239.0 
1675.572144 82.0 
END IONS

BEGIN IONS
TITLE=Scan Number: 162
PEPMASS=534.10602
CHARGE=1+
MSLEVEL=2
FILENAME=A6_RA6_01_2889.mzXML
INSTRUMENT=ion trap
SCANS=162
SMILES=CC(=O)NC(CSC1=CC2=C(C(=O)C3=CC=CC(O)=C3C2=O)C4(O)C(=O)C(O)C(C)(O)CC14O)C(O)=O
INCHIKEY=WLQREUAHQSBKHB-UHFFFAOYSA-N
74.956093 175.0 
84.044563 3488.0 
85.044838 533.0 
86.51767 116.0 
88.039497 825.0 
102.054771 201.0 
107.083351 175.0 
112.041428 153.0 
115.055046 179.0 
125.096924 308.0 
130.049271 8375.0 
131.052795 515.0 
149.028214 484.0 
162.007095 295.0 
175.437622 206.0 
177.008514 168.0 
188.055069 221.0 
191.047455 112.0 
199.038422 279.0 
207.028717 137.0 
209.094177 131.0 
216.995117 164.0 
217.068283 190.0 
221.053543 157.0 
222.045959 165.0 
231.216354 143.0 
240.031982 151.0 
243.016663 166.0 
254.045319 127.0 
255.046341 227.0 
256.02771 230.0 
261.296722 300.0 
262.058777 298.0 
265.036469 179.0 
269.038147 803.0 
269.087982 200.0 
271.012848 508.0 
271.142151 176.0 
273.010834 205.0 
273.036926 204.0 
279.010437 193.0 
279.049652 205.0 
279.071228 238.0 
280.068817 601.0 
283.000183 265.0 
283.043945 297.0 
285.020477 1145.0 
286.026337 294.0 
291.028961 195.0 
291.060547 704.0 
291.14325 170.0 
292.030731 149.0 
292.060211 305.0 
293.035034 303.0 
294.033356 198.0 
294.778595 161.0 
294.993164 200.0 
297.02063 1994.0 
297.073242 312.0 
298.028076 548.0 
298.998322 149.0 
301.049255 191.0 
303.989655 230.0 
304.073914 118.0 
306.025848 294.0 
306.060455 206.0 
307.055054 225.0 
307.60498 98.0 
308.075867 245.0 
309.023376 1060.0 
309.070557 107.0 
310.029602 1155.0 
310.091064 102.0 
310.983582 225.0 
311.039276 2482.0 
312.044586 606.0 
313.02121 757.0 
313.05719 415.0 
313.965668 181.0 
315.010345 94.0 
317.050476 97.0 
321.020966 1535.0 
322.025482 1913.0 
323.037323 5413.0 
323.150177 382.0 
324.044891 1380.0 
325.011658 202.0 
325.059052 865.0 
326.013611 225.0 
326.044586 700.0 
327.042297 151.0 
327.073456 164.0 
328.401428 124.0 
335.046631 246.0 
336.034119 99.0 
336.987091 169.0 
337.058441 148.0 
338.053009 509.0 
339.034363 380.0 
340.039246 250.0 
341.046722 3789.0 
342.048615 838.0 
343.039673 180.0 
346.031525 198.0 
347.027313 316.0 
348.033722 190.0 
349.057281 590.0 
351.038422 274.0 
353.063538 354.0 
355.076935 261.0 
357.041443 557.0 
361.065979 133.0 
364.050262 185.0 
365.049042 777.0 
366.054352 357.0 
367.066101 130.0 
367.909332 86.0 
368.057648 135.0 
371.079468 89.0 
371.161896 203.0 
372.046234 129.0 
382.067902 139.0 
383.055634 817.0 
384.082855 281.0 
384.39389 254.0 
385.042175 127.0 
387.058044 236.0 
400.079987 179.0 
410.067322 1136.0 
411.049561 385.0 
412.074738 339.0 
415.007599 126.0 
427.159058 156.0 
428.081207 1658.0 
428.340729 218.0 
429.076233 223.0 
434.071014 149.0 
438.07486 160.0 
446.087799 511.0 
452.079285 2281.0 
453.072601 131.0 
454.101379 431.0 
456.051575 184.0 
470.098602 2332.0 
471.091705 717.0 
474.084656 180.0 
477.131012 223.0 
477.230499 1311.0 
496.233795 185.0 
499.150757 230.0 
517.137695 233.0 
534.295776 170.0 
535.147278 116.0 
535.235901 9849.0 
536.249023 309.0 
536.928406 112.0 
537.244812 174.0 
538.278687 200.0 
END IONS

BEGIN IONS
TITLE=Scan Number: 163
PEPMASS=551.133
CHARGE=1+
MSLEVEL=2
FILENAME=A6_RA6_01_2889.mzXML
INSTRUMENT=ion trap
SCANS=163
SMILES=CC(=O)NC(CSC1=CC2=C(C(=O)C3=CC=CC(O)=C3C2=O)C4(O)C(=O)C(O)C(C)(O)CC14O)C(O)=O
INCHIKEY=WLQREUAHQSBKHB-UHFFFAOYSA-N
84.043968 5243.0 
85.046768 212.0 
86.0597 306.0 
88.040024 1556.0 
94.226395 215.0 
112.039566 144.0 
118.033745 224.0 
123.043953 137.0 
130.012726 297.0 
130.049622 17510.0 
131.055435 156.0 
132.251938 233.0 
149.005844 115.0 
150.500366 175.0 
154.086578 160.0 
179.090103 94.0 
179.618057 177.0 
187.03183 124.0 
200.681839 127.0 
213.026199 162.0 
223.078156 218.0 
227.03627 123.0 
230.039734 141.0 
235.998795 162.0 
241.058807 214.0 
241.083572 186.0 
247.078598 116.0 
251.071594 145.0 
252.036423 173.0 
252.705261 184.0 
255.02507 410.0 
256.029907 168.0 
256.06546 166.0 
257.058472 172.0 
263.047516 109.0 
264.049316 171.0 
265.046722 242.0 
266.047272 115.0 
267.047455 199.0 
269.038544 595.0 
269.085022 183.0 
270.052704 381.0 
277.039307 335.0 
278.023193 99.0 
278.061523 475.0 
279.065491 570.0 
281.040894 278.0 
283.050903 190.0 
283.589935 252.0 
284.416931 362.0 
285.020844 1819.0 
286.022644 285.0 
287.036346 112.0 
287.344635 168.0 
290.059296 128.0 
291.066681 585.0 
293.021362 894.0 
294.035187 506.0 
296.01123 158.0 
297.020599 3635.0 
298.026215 886.0 
299.014404 570.0 
300.037079 179.0 
303.02536 205.0 
304.163788 117.0 
305.024384 165.0 
306.048065 212.0 
307.05954 1323.0 
308.059296 775.0 
309.022888 1323.0 
309.064728 486.0 
310.029266 1393.0 
310.187378 234.0 
310.272003 129.0 
310.313171 93.0 
310.448364 102.0 
311.037598 4604.0 
311.322388 89.0 
311.801941 93.0 
312.039764 982.0 
313.013062 282.0 
313.049103 666.0 
314.02063 396.0 
315.535278 110.0 
319.054657 82.0 
320.053619 196.0 
321.024323 689.0 
321.059479 404.0 
322.025543 1921.0 
322.80896 87.0 
322.88501 227.0 
323.036896 9103.0 
324.036255 2152.0 
324.798828 214.0 
324.974518 208.0 
325.052979 2334.0 
326.024292 116.0 
326.062927 442.0 
330.074554 322.0 
334.015839 158.0 
335.018005 138.0 
335.052612 200.0 
336.044373 206.0 
337.04718 1165.0 
339.028931 1270.0 
340.037964 328.0 
341.047394 8081.0 
341.129578 132.0 
342.050629 679.0 
343.000763 252.0 
343.228485 87.0 
347.041168 1357.0 
348.037079 227.0 
349.049866 563.0 
349.99234 142.0 
350.996735 169.0 
353.063416 1025.0 
354.064514 630.0 
357.042908 884.0 
358.03244 462.0 
358.071777 226.0 
364.043762 537.0 
365.047974 4014.0 
365.874359 167.0 
366.053406 1743.0 
367.062866 245.0 
367.790497 141.0 
371.079773 201.0 
371.971924 252.0 
372.062592 601.0 
375.03244 283.0 
377.042603 235.0 
379.065674 192.0 
382.069611 128.0 
382.981628 131.0 
383.063477 944.0 
384.061035 175.0 
387.055939 271.0 
391.992279 149.0 
392.05072 257.0 
393.041534 540.0 
395.064178 272.0 
402.196777 117.0 
403.35257 122.0 
407.077484 123.0 
410.07132 1555.0 
411.050873 424.0 
411.083832 436.0 
412.04599 233.0 
424.080292 174.0 
427.45752 276.0 
428.072845 1513.0 
429.086517 769.0 
430.09375 84.0 
432.138245 125.0 
434.136658 137.0 
438.055542 169.0 
442.095917 141.0 
446.088501 477.0 
452.080078 6128.0 
453.083191 655.0 
454.035217 253.0 
454.101654 869.0 
455.089539 196.0 
456.073303 484.0 
469.948883 255.0 
470.091797 9364.0 
471.043732 165.0 
471.089722 1350.0 
474.077759 189.0 
480.082123 94.0 
488.107239 475.0 
489.108093 133.0 
491.176758 120.0 
491.969299 204.0 
492.200165 182.0 
498.087799 135.0 
549.220947 120.0 
550.225098 1215.0 
551.148071 94.0 
551.233093 658.0 
552.135498 127.0 
552.224304 101.0 
692.375183 231.0 
870.030518 108.0 
1867.002319 92.0 
END IONS

BEGIN IONS
TITLE=Scan Number: 164
PEPMASS=593.18597
CHARGE=1+
MSLEVEL=2
FILENAME=A6_RA6_01_2889.mzXML
INSTRUMENT=ion trap
SCANS=164
SMILES=COC1=CC=C(C=C1)C2=COC3=CC(O[C@@H]4O[C@H](CO[C@@H]5OC[C@](O)(CO)[C@H]5O)[C@@H](O)[C@H](O)[C@H]4O)=C(OC)C=C3C2=O
INCHIKEY=MZJUGRMCXKZMOG-QMVDJANMSA-N
69.960365 163.0 
71.15844 188.0 
71.604218 197.0 
74.013649 181.0 
81.707443 260.0 
85.028549 344.0 
87.041313 111.0 
89.039139 178.0 
92.563431 85.0 
99.986877 241.0 
103.038895 173.0 
103.082352 177.0 
103.221359 268.0 
103.523468 311.0 
105.65712 247.0 
107.361275 369.0 
108.019867 203.0 
108.135864 332.0 
108.549767 255.0 
111.236153 267.0 
112.04911 316.0 
112.56031 220.0 
113.058044 336.0 
116.596931 217.0 
117.042473 290.0 
117.229332 430.0 
119.049942 152.0 
121.063309 109.0 
123.005249 418.0 
124.017479 203.0 
124.873062 112.0 
127.039017 175.0 
127.79879 322.0 
128.058212 121.0 
131.04808 103.0 
132.057007 296.0 
133.033112 217.0 
133.063721 1145.0 
134.069992 156.0 
135.039642 263.0 
137.059967 923.0 
138.047668 189.0 
139.039688 591.0 
139.062393 221.0 
141.787384 106.0 
145.06839 195.0 
145.467133 220.0 
146.9086 215.0 
147.047256 474.0 
148.037918 144.0 
148.057693 441.0 
148.435822 264.0 
149.66806 148.0 
150.213272 146.0 
151.484482 83.0 
152.009659 153.0 
156.62915 216.0 
157.263672 184.0 
157.840256 164.0 
159.032684 124.0 
159.079773 175.0 
160.424225 329.0 
160.710327 117.0 
161.061035 275.0 
162.222015 288.0 
163.043091 790.0 
163.32016 201.0 
164.044861 374.0 
165.906418 209.0 
166.023956 4461.0 
166.92569 216.0 
167.033615 1222.0 
167.43132 128.0 
168.048645 423.0 
169.061447 241.0 
169.282898 151.0 
169.361298 98.0 
169.935135 357.0 
170.0159 159.0 
172.092575 302.0 
172.644501 200.0 
172.928894 121.0 
174.20076 202.0 
174.351151 287.0 
175.03595 198.0 
176.042023 441.0 
177.065628 159.0 
178.161453 146.0 
180.290833 331.0 
180.66246 434.0 
181.181274 151.0 
182.009445 199.0 
182.067856 245.0 
183.034668 248.0 
183.082108 1863.0 
183.47963 248.0 
184.036072 5915.0 
184.08609 398.0 
184.219528 168.0 
184.295853 137.0 
185.046112 344.0 
185.092453 101.0 
186.067978 123.0 
186.224564 86.0 
190.304886 164.0 
192.306503 273.0 
193.045959 346.0 
194.135971 140.0 
196.047195 1032.0 
197.058868 721.0 
197.096817 200.0 
198.042709 212.0 
198.151672 205.0 
199.061066 195.0 
199.12175 316.0 
200.07782 288.0 
201.084991 157.0 
201.246918 304.0 
205.12619 132.0 
206.017014 152.0 
206.062576 264.0 
208.052216 630.0 
208.814178 97.0 
209.058838 370.0 
209.981216 230.0 
210.047333 282.0 
210.503448 88.0 
211.073227 5245.0 
211.251343 321.0 
212.084824 471.0 
213.053177 507.0 
215.105453 126.0 
218.027863 152.0 
218.65831 265.0 
224.045944 528.0 
225.060715 883.0 
226.058563 138.0 
226.099228 402.0 
227.070297 1568.0 
228.076859 2304.0 
228.853424 146.0 
229.083969 611.0 
230.059692 210.0 
231.063721 124.0 
233.410477 122.0 
234.147903 345.0 
238.06572 273.0 
239.068771 11910.0 
239.394363 281.0 
239.647049 140.0 
240.074356 1964.0 
240.877869 367.0 
241.052261 2083.0 
241.411835 271.0 
242.700928 178.0 
242.961182 94.0 
243.101074 18239.0 
243.508347 70.0 
243.593231 109.0 
243.945999 100.0 
244.102112 2736.0 
244.267639 304.0 
244.496414 92.0 
245.106827 300.0 
246.086746 187.0 
252.045319 510.0 
252.155487 268.0 
253.036285 166.0 
253.079391 452.0 
254.043488 128.0 
254.831909 198.0 
255.074219 880.0 
255.622452 230.0 
255.983765 290.0 
256.071014 9552.0 
256.496216 173.0 
257.074188 1552.0 
258.076233 198.0 
258.288239 193.0 
259.2034 183.0 
260.77948 247.0 
261.080139 170.0 
261.750702 77.0 
262.881561 217.0 
263.156952 70.0 
265.044617 233.0 
266.467773 271.0 
266.761292 69.0 
267.065247 1914.0 
267.206696 203.0 
267.672791 124.0 
267.742188 157.0 
268.040985 248.0 
269.044006 840.0 
269.087372 247.0 
270.040527 181.0 
270.085846 173.0 
271.094513 1352.0 
271.580353 222.0 
271.616028 180.0 
272.097504 173.0 
273.388916 144.0 
273.491699 272.0 
273.785095 361.0 
274.005249 299.0 
274.446899 384.0 
276.136139 264.0 
276.861053 117.0 
281.072296 187.0 
281.499817 144.0 
281.827515 180.0 
282.080078 395.0 
282.670868 188.0 
283.059113 5563.0 
283.953735 483.0 
283.99408 637.0 
284.066956 78600.0 
284.199158 78.0 
284.427643 267.0 
284.45752 164.0 
284.630951 141.0 
284.676575 106.0 
285.00235 470.0 
285.070068 11338.0 
285.12735 351.0 
285.993347 102.0 
286.074432 566.0 
287.144318 112.0 
287.223053 224.0 
287.26828 136.0 
288.133423 149.0 
288.556488 196.0 
289.522034 315.0 
292.138489 311.0 
293.244171 396.0 
294.052032 163.0 
295.219238 93.0 
296.555786 88.0 
296.697845 100.0 
297.056458 97.0 
297.125092 445.0 
297.325378 152.0 
297.388367 77.0 
297.468719 68.0 
297.933716 136.0 
297.993317 217.0 
298.025574 553.0 
298.154144 381.0 
298.22168 491.0 
298.290771 219.0 
298.350708 265.0 
298.386902 665.0 
298.504456 707.0 
298.551422 313.0 
298.618134 350.0 
298.657806 557.0 
298.741791 917.0 
298.862366 546.0 
298.880829 596.0 
298.934387 654.0 
299.090607 949699.0 
299.186584 518.0 
299.207581 729.0 
299.289886 477.0 
299.315216 415.0 
299.364746 569.0 
299.437714 415.0 
299.464081 524.0 
299.537689 443.0 
299.629211 193.0 
299.698608 336.0 
299.74704 520.0 
299.782654 441.0 
299.819183 348.0 
299.927887 424.0 
300.094147 127329.0 
300.157593 209.0 
300.187592 165.0 
300.253326 98.0 
300.34021 141.0 
300.45578 212.0 
300.601837 128.0 
300.670898 223.0 
300.764343 103.0 
300.869629 71.0 
301.096039 7348.0 
301.344391 171.0 
301.496948 161.0 
301.530182 107.0 
301.688599 142.0 
301.734253 139.0 
301.781433 201.0 
301.829254 192.0 
301.875702 139.0 
301.954559 376.0 
302.030731 345.0 
302.065399 291.0 
302.122223 324.0 
302.166443 668.0 
302.26181 230.0 
302.282867 280.0 
302.340851 404.0 
302.399323 120.0 
302.809875 129.0 
302.887146 104.0 
303.09082 226.0 
303.18515 184.0 
303.282837 84.0 
303.309631 114.0 
303.515045 96.0 
307.061371 163.0 
308.681396 109.0 
311.088776 137.0 
311.377625 83.0 
311.430176 94.0 
311.731567 138.0 
312.307495 88.0 
315.140533 123.0 
317.166199 102.0 
325.068512 280.0 
327.070618 95.0 
337.075714 196.0 
339.117401 173.0 
349.05658 113.0 
351.056549 140.0 
352.050751 160.0 
395.105286 169.0 
421.114227 315.0 
425.098877 200.0 
429.104218 218.0 
443.900909 120.0 
445.121185 1005.0 
445.316864 136.0 
446.111816 2165.0 
447.041962 215.0 
447.119049 1047.0 
447.298859 91.0 
461.145599 1537.0 
462.108154 146.0 
462.153534 334.0 
478.779205 169.0 
497.153046 167.0 
506.963959 99.0 
525.127075 172.0 
529.513062 143.0 
550.985718 124.0 
568.851318 150.0 
589.183655 82.0 
592.52771 146.0 
593.061035 132.0 
593.125122 187.0 
593.186829 2366.0 
593.401855 217.0 
594.05304 92.0 
594.180115 153.0 
631.118103 110.0 
668.342529 78.0 
837.39856 140.0 
1026.463989 194.0 
1026.965942 101.0 
1339.497314 100.0 
1843.969727 320.0 
END IONS

BEGIN IONS
TITLE=Scan Number: 167
PEPMASS=298.14301
CHARGE=1+
MSLEVEL=2
FILENAME=E8_RE8_01_2942.mzXML
INSTRUMENT=ion trap
SCANS=167
SMILES=COC1=CC=C(C=C1)C(O)CNC(=O)\C=C\C2=CC=CC=C2
INCHIKEY=QRFDENJATPJOKG-KPKJPENVSA-N
70.166473 289.0 
71.198021 152.0 
71.225662 171.0 
75.487862 197.0 
75.916878 210.0 
76.540489 291.0 
77.037453 4254.0 
78.040825 200.0 
78.291138 142.0 
78.635002 256.0 
81.466927 168.0 
82.278374 307.0 
83.82074 183.0 
84.455025 257.0 
85.257835 131.0 
86.499886 355.0 
87.561241 430.0 
87.771149 207.0 
88.464691 235.0 
88.623161 270.0 
90.046173 101.0 
91.054253 1646.0 
91.878235 92.0 
92.024612 236.0 
92.056122 379.0 
93.025414 284.0 
93.889427 145.0 
94.301117 114.0 
94.87085 86.0 
95.048607 10319.0 
96.050781 742.0 
96.429802 247.0 
97.763954 146.0 
97.886551 87.0 
97.952721 192.0 
99.179367 185.0 
101.981201 204.0 
102.045265 4174.0 
102.657234 111.0 
102.748611 184.0 
102.813965 118.0 
102.847763 230.0 
102.872063 172.0 
102.964134 180.0 
103.000511 993.0 
103.053452 323947.0 
103.105316 217.0 
103.169067 248.0 
103.186752 142.0 
103.211197 238.0 
103.283043 178.0 
103.341911 125.0 
103.394447 119.0 
104.011497 222.0 
104.056824 26162.0 
104.414841 110.0 
104.710846 113.0 
105.043762 23193.0 
106.048279 1159.0 
106.907608 95.0 
108.058258 364.0 
108.079819 348.0 
115.054268 168.0 
115.172813 118.0 
116.062408 221.0 
118.061089 927.0 
119.059982 178.0 
119.077934 184.0 
121.064072 5801.0 
121.098686 120.0 
122.07058 160.0 
123.07962 386.0 
123.431374 154.0 
124.100861 252.0 
125.059494 385.0 
126.264458 352.0 
128.057419 601.0 
128.406464 220.0 
129.068604 2596.0 
130.070648 312.0 
130.222626 327.0 
130.558304 210.0 
130.811523 298.0 
130.860291 93.0 
130.969986 509.0 
131.048325 439668.0 
131.105164 302.0 
131.130768 183.0 
131.212433 234.0 
131.325211 526.0 
131.468491 150.0 
131.497131 162.0 
131.537628 316.0 
131.648544 81.0 
132.001831 243.0 
132.051468 30537.0 
132.537735 98.0 
132.688004 125.0 
132.916168 93.0 
132.947189 108.0 
132.985107 126.0 
133.016846 152.0 
133.058624 571.0 
133.100113 204.0 
133.131348 133.0 
133.186371 259.0 
133.68129 155.0 
135.043945 10271.0 
136.04599 720.0 
137.077835 152.0 
137.103821 105.0 
139.157364 79.0 
139.411545 100.0 
139.754471 131.0 
142.850296 94.0 
143.123276 77.0 
143.274521 79.0 
144.018265 145.0 
144.054596 2466.0 
145.059814 492.0 
146.063339 175.0 
148.039429 183.0 
148.515274 212.0 
149.082275 169.0 
150.089691 8563.0 
150.150146 113.0 
151.089661 248.0 
152.067307 171.0 
154.494293 211.0 
154.863037 277.0 
154.891647 132.0 
155.044678 475.0 
155.060883 684.0 
155.111649 70.0 
155.416855 155.0 
156.058838 360.0 
158.061447 795.0 
158.959198 114.0 
159.079193 4300.0 
160.082458 328.0 
161.046478 674.0 
161.080612 159.0 
161.455109 156.0 
163.057617 194.0 
165.069611 153.0 
169.053757 120.0 
174.055313 166.0 
176.067322 1398.0 
177.072845 220.0 
188.067993 235.0 
189.042892 231.0 
189.216675 140.0 
190.077148 144.0 
191.055237 161.0 
192.088715 364.0 
197.095276 296.0 
201.075226 179.0 
202.074387 1270.0 
203.039398 147.0 
203.081207 375.0 
204.028702 152.0 
204.099991 794.0 
205.104706 155.0 
207.109009 272.0 
209.093063 145.0 
219.044449 157.0 
219.080032 505.0 
220.089478 1001.0 
221.084824 404.0 
223.111099 468.0 
231.07811 394.0 
234.097244 151.0 
235.109879 3208.0 
236.114761 292.0 
237.126602 915.0 
239.119995 183.0 
246.103287 101.0 
250.119629 100.0 
252.14183 428.0 
253.153549 198.0 
257.535309 269.0 
262.127899 171.0 
263.110291 353.0 
266.083313 249.0 
266.114777 118.0 
277.812347 127.0 
279.319244 141.0 
280.130768 11377.0 
280.614288 84.0 
281.136169 1710.0 
283.027527 99.0 
301.996948 84.0 
333.18985 150.0 
378.114014 162.0 
478.410492 134.0 
837.729248 210.0 
1261.232788 140.0 
1305.680542 202.0 
1337.17395 281.0 
1345.927612 119.0 
1348.707764 108.0 
1378.506958 179.0 
1380.185913 137.0 
1461.003784 213.0 
1472.251953 113.0 
1480.554565 114.0 
1525.70166 124.0 
1543.65918 288.0 
1590.248779 195.0 
1598.213379 346.0 
1604.225464 244.0 
1631.052124 258.0 
1649.33667 166.0 
1687.047363 82.0 
1711.146118 303.0 
1724.889038 130.0 
1725.244995 288.0 
1731.670288 237.0 
1733.534912 80.0 
1801.429565 214.0 
1803.397705 271.0 
1813.687134 217.0 
1816.258423 321.0 
1818.678467 309.0 
1839.807495 134.0 
1857.11792 235.0 
1930.191406 278.0 
1935.341919 215.0 
1939.556152 177.0 
1973.044922 282.0 
1977.188965 247.0 
1989.390503 240.0 
1998.014526 177.0 
2004.14624 216.0 
END IONS

BEGIN IONS
TITLE=Scan Number: 168
PEPMASS=280.13199
CHARGE=1+
MSLEVEL=2
FILENAME=E8_RE8_01_2942.mzXML
INSTRUMENT=ion trap
SCANS=168
SMILES=COC1=CC=C(C=C1)C(O)CNC(=O)\C=C\C2=CC=CC=C2
INCHIKEY=QRFDENJATPJOKG-KPKJPENVSA-N
77.038864 408.0 
84.382263 66.0 
88.135094 280.0 
91.053047 438.0 
95.030937 425.0 
95.048096 2991.0 
96.053535 231.0 
96.329033 121.0 
96.496101 105.0 
97.053238 333.0 
102.047722 623.0 
103.007759 311.0 
103.053307 54538.0 
103.118927 53.0 
103.247726 341.0 
103.542526 105.0 
104.056534 4036.0 
104.52404 93.0 
105.043167 5553.0 
106.047943 735.0 
110.339989 55.0 
112.66291 72.0 
113.057999 150.0 
114.650246 157.0 
115.053978 191.0 
117.777954 281.0 
118.041534 130.0 
118.067635 300.0 
120.974167 147.0 
121.064529 538.0 
128.062103 408.0 
129.071838 156.0 
130.87558 149.0 
130.926804 204.0 
131.004944 356.0 
131.048325 52805.0 
131.102127 170.0 
131.125229 83.0 
131.192856 184.0 
131.965881 274.0 
132.05249 1289.0 
132.958084 98.0 
133.148529 101.0 
135.045578 258.0 
135.064041 162.0 
138.820618 104.0 
140.53775 135.0 
144.055588 517.0 
145.065933 280.0 
150.09227 1119.0 
152.067337 147.0 
155.064743 185.0 
158.059998 199.0 
159.083984 1371.0 
161.045105 215.0 
167.01973 193.0 
176.067856 106.0 
189.044815 211.0 
191.076752 200.0 
202.083481 113.0 
204.087311 410.0 
235.11319 310.0 
249.007156 173.0 
267.023956 212.0 
276.986816 165.0 
280.1315 753.0 
295.008667 670.0 
1605.490723 180.0 
1706.786865 210.0 
1770.313843 255.0 
1878.493286 233.0 
END IONS

BEGIN IONS
TITLE=Scan Number: 169
PEPMASS=329.17401
CHARGE=1+
MSLEVEL=2
FILENAME=E8_RE8_01_2942.mzXML
INSTRUMENT=ion trap
SCANS=169
SMILES=COC1=C(O)C=CC(CC(C)C(C)CC2=CC3=C(OCO3)C=C2)=C1
INCHIKEY=QDDILOVMGWUNGD-UHFFFAOYSA-N
77.039024 218.0 
78.912331 142.0 
79.023476 361.0 
79.05352 1460.0 
80.046272 219.0 
81.069763 647.0 
91.054611 1704.0 
93.031593 172.0 
93.066093 260.0 
94.039665 928.0 
94.079262 126.0 
95.046341 715.0 
95.077339 102.0 
96.051231 196.0 
97.575958 236.0 
103.052238 206.0 
104.053886 152.0 
105.039749 2359.0 
105.06926 5363.0 
106.07431 542.0 
107.021317 224.0 
107.048843 1550.0 
107.07457 273.0 
107.261375 79.0 
108.049858 227.0 
109.064468 1258.0 
110.75058 150.0 
111.041939 116.0 
115.052612 379.0 
116.061996 383.0 
116.448898 296.0 
117.029655 124.0 
117.06633 151.0 
119.045753 1724.0 
119.084595 2369.0 
120.091911 127.0 
121.062317 671.0 
122.035873 4966.0 
123.042885 938.0 
123.081505 134.0 
124.051842 139.0 
127.055984 168.0 
128.176346 193.0 
128.299591 242.0 
129.068237 805.0 
131.0513 328.0 
131.08638 263.0 
132.053696 488.0 
133.03067 157.0 
133.063477 12812.0 
133.098389 854.0 
134.066803 559.0 
134.703629 159.0 
134.718033 186.0 
134.859451 95.0 
134.898422 163.0 
135.043457 38319.0 
135.169998 106.0 
135.360336 335.0 
135.703629 98.0 
136.04808 1686.0 
137.014145 225.0 
137.058289 27531.0 
137.090561 120.0 
137.269699 138.0 
137.385788 131.0 
138.060532 1373.0 
138.221115 219.0 
139.06636 197.0 
139.179596 100.0 
141.06636 254.0 
142.075165 1672.0 
143.05574 446.0 
143.082382 187.0 
145.060257 406.0 
145.100098 321.0 
146.071457 1477.0 
146.104599 99.0 
147.07959 2238.0 
147.115662 2309.0 
148.084656 185.0 
148.117828 319.0 
149.059586 1621.0 
149.098618 109.0 
149.180481 79.0 
151.076645 2732.0 
151.285645 262.0 
152.058044 265.0 
153.069916 140.0 
154.947327 153.0 
155.052246 222.0 
155.328583 306.0 
156.093292 118.0 
157.100128 1431.0 
158.109406 418.0 
160.087692 2337.0 
162.178879 82.0 
163.06955 524.0 
165.089203 999.0 
168.486526 201.0 
170.082306 190.0 
171.117477 143.0 
173.05867 166.0 
174.883881 198.0 
174.926651 81.0 
175.057968 89.0 
175.110046 13429.0 
175.481003 93.0 
176.111877 509.0 
178.561584 123.0 
181.061356 160.0 
182.062485 347.0 
187.107697 280.0 
188.082794 88.0 
190.931274 129.0 
191.10524 142.0 
197.058899 159.0 
205.120773 1795.0 
206.106262 239.0 
207.138199 671.0 
208.143066 218.0 
219.133148 183.0 
225.085953 156.0 
228.111618 249.0 
241.087845 203.0 
241.156372 291.0 
242.125565 190.0 
252.145142 141.0 
283.164001 195.0 
311.162354 265.0 
1297.27417 319.0 
1513.049561 301.0 
1514.706177 282.0 
1574.996216 234.0 
1860.136108 370.0 
1900.664551 117.0 
END IONS

BEGIN IONS
TITLE=Scan Number: 170
PEPMASS=346.20099
CHARGE=1+
MSLEVEL=2
FILENAME=E8_RE8_01_2942.mzXML
INSTRUMENT=ion trap
SCANS=170
SMILES=COC1=C(O)C=CC(CC(C)C(C)CC2=CC3=C(OCO3)C=C2)=C1
INCHIKEY=QDDILOVMGWUNGD-UHFFFAOYSA-N
77.039787 269.0 
79.052521 1829.0 
80.057899 175.0 
81.020554 239.0 
81.068489 372.0 
86.426735 246.0 
91.053383 1420.0 
93.075279 178.0 
94.040741 971.0 
94.69178 369.0 
95.047211 718.0 
98.873558 246.0 
103.052254 418.0 
105.031601 581.0 
105.069 4308.0 
106.071655 150.0 
107.04882 2074.0 
107.086525 536.0 
107.495628 120.0 
108.052711 325.0 
109.063545 513.0 
110.065048 313.0 
116.042427 211.0 
119.060066 179.0 
119.082634 724.0 
121.037628 169.0 
121.06221 570.0 
122.032181 2498.0 
123.041924 289.0 
124.075775 788.0 
125.061417 189.0 
128.046524 310.0 
129.070007 214.0 
130.075256 120.0 
132.058304 204.0 
133.063599 10209.0 
133.098465 438.0 
133.188889 244.0 
134.036423 199.0 
134.066696 814.0 
134.967789 167.0 
135.042389 23831.0 
135.227325 101.0 
135.26004 94.0 
136.04805 2382.0 
137.033371 238.0 
137.058517 22918.0 
137.412628 131.0 
138.062225 1290.0 
139.103806 138.0 
142.077316 1327.0 
143.059937 297.0 
143.522278 228.0 
145.063431 936.0 
145.10083 1021.0 
146.069931 1016.0 
147.080643 2316.0 
147.115601 1960.0 
148.0849 436.0 
148.110931 145.0 
149.057922 736.0 
151.073441 3001.0 
152.076431 299.0 
155.057495 305.0 
157.101974 1599.0 
159.080704 146.0 
159.110901 242.0 
160.084824 623.0 
161.090363 169.0 
162.095139 179.0 
163.074783 585.0 
165.0849 785.0 
166.095078 131.0 
173.053314 73.0 
173.100922 252.0 
175.110611 22533.0 
175.435501 278.0 
176.115021 1472.0 
177.090775 137.0 
179.0625 185.0 
179.098022 140.0 
183.077408 157.0 
185.091431 181.0 
185.130981 138.0 
187.11441 157.0 
187.576416 88.0 
197.055237 205.0 
200.088074 138.0 
201.091705 154.0 
203.111542 182.0 
205.121033 6346.0 
206.122879 831.0 
207.136948 3886.0 
207.391785 91.0 
208.05481 76.0 
208.13855 143.0 
209.057312 139.0 
209.089081 326.0 
210.060867 180.0 
211.076599 244.0 
211.104187 131.0 
226.132675 221.0 
227.07341 417.0 
227.110962 280.0 
236.093918 205.0 
240.07692 196.0 
243.132233 333.0 
255.13501 240.0 
257.155548 100.0 
259.086639 125.0 
261.119202 121.0 
264.101959 154.0 
269.143646 155.0 
270.153137 167.0 
279.10788 138.0 
279.143768 166.0 
283.245087 193.0 
297.142456 773.0 
311.16629 604.0 
329.15799 334.0 
1215.748047 213.0 
1347.956299 160.0 
1729.875366 114.0 
1748.390259 266.0 
1843.973145 296.0 
END IONS

BEGIN IONS
TITLE=Scan Number: 171
PEPMASS=393.20599
CHARGE=1+
MSLEVEL=2
FILENAME=E8_RE8_01_2942.mzXML
INSTRUMENT=ion trap
SCANS=171
SMILES=CC(C)=CCC\C(C)=C\CC1=C2OC(CC(=O)C2=C(O)C=C1O)C3=CC=CC=C3
INCHIKEY=SPOAVFOKSZPUQS-SFQUDFHCSA-N
70.909752 200.0 
71.086868 272.0 
81.032661 259.0 
82.03302 289.0 
82.427116 186.0 
83.014488 249.0 
91.052078 389.0 
92.995346 795.0 
93.030357 225.0 
94.007309 191.0 
97.025818 741.0 
99.006828 538.0 
103.728935 235.0 
105.071777 379.0 
107.089912 464.0 
108.016136 128.0 
109.027336 947.0 
110.278641 221.0 
110.750893 278.0 
111.003929 976.0 
121.947197 144.0 
122.034813 197.0 
123.006645 5955.0 
124.016136 125.0 
124.039307 118.0 
125.216248 305.0 
133.084015 297.0 
135.043488 244.0 
137.02269 3450.0 
137.186111 215.0 
140.981339 174.0 
141.017517 14571.0 
141.072754 201.0 
142.020569 377.0 
143.279694 109.0 
146.264145 214.0 
147.125351 194.0 
147.834763 181.0 
149.497513 200.0 
153.018509 333.0 
155.033127 793.0 
156.046844 94.0 
160.140762 267.0 
163.07312 135.0 
164.273605 127.0 
164.354599 157.0 
164.567444 217.0 
164.611786 178.0 
164.766541 228.0 
164.941833 265.0 
165.017136 160392.0 
165.078003 114.0 
165.432678 190.0 
165.478851 97.0 
165.501923 123.0 
165.772507 137.0 
166.020203 11728.0 
166.207886 94.0 
166.46405 96.0 
166.752625 193.0 
166.812683 125.0 
167.018799 279.0 
167.084488 332.0 
167.204041 87.0 
167.24382 93.0 
167.856323 96.0 
168.092728 128.0 
168.41246 159.0 
168.962601 166.0 
171.079071 292.0 
175.687408 121.0 
176.689835 113.0 
179.032639 666.0 
180.037643 228.0 
181.055542 155.0 
182.344452 123.0 
182.416031 119.0 
182.963501 122.0 
183.027527 38394.0 
184.031067 2327.0 
185.029922 95.0 
185.555588 135.0 
195.122543 277.0 
195.224182 103.0 
201.060791 118.0 
211.065079 286.0 
219.062027 134.0 
225.120544 210.0 
226.088684 167.0 
227.067734 2683.0 
240.035507 187.0 
241.078674 185.0 
242.2155 288.0 
244.069122 229.0 
251.075195 93.0 
252.071365 132.0 
257.081055 175.0 
258.148438 146.0 
268.104553 214.0 
268.167267 80.0 
268.801758 152.0 
268.912872 106.0 
269.079742 80574.0 
269.550537 216.0 
269.606018 257.0 
269.704437 189.0 
269.840515 162.0 
269.977448 278.0 
270.082581 9272.0 
271.086029 374.0 
271.818848 128.0 
272.162689 103.0 
283.098541 260.0 
289.142731 150.0 
305.120728 279.0 
307.025726 165.0 
307.086945 118.0 
312.910339 258.0 
325.135803 128.0 
338.153595 309.0 
347.109894 162.0 
351.161652 121.0 
365.133423 141.0 
393.170929 188.0 
393.201355 341.0 
393.280853 150.0 
1747.375366 222.0 
1847.732544 123.0 
END IONS

BEGIN IONS
TITLE=Scan Number: 172
PEPMASS=443.24301
CHARGE=1+
MSLEVEL=2
FILENAME=E8_RE8_01_2942.mzXML
INSTRUMENT=ion trap
SCANS=172
SMILES=CC(=O)OC1CCC2(C)C(COC3=CC=C4C=CC(=O)OC4=C3)C(C)(O)CCC2C1(C)C
INCHIKEY=RIPKCRCUFJSKKD-UHFFFAOYSA-N
70.603081 178.0 
72.489082 118.0 
75.035217 234.0 
75.233124 177.0 
76.378639 191.0 
77.037514 863.0 
78.558784 296.0 
79.05278 1674.0 
80.056549 192.0 
80.31292 219.0 
81.069771 3566.0 
81.397072 253.0 
82.071724 351.0 
83.082359 336.0 
84.088852 146.0 
84.215645 253.0 
85.154533 263.0 
85.874138 217.0 
87.463478 190.0 
87.656921 175.0 
89.672073 131.0 
90.040817 151.0 
91.053909 4004.0 
91.456795 109.0 
92.865265 177.0 
93.070274 3428.0 
93.473442 99.0 
94.447365 296.0 
94.492981 121.0 
95.047417 244.0 
95.085617 9297.0 
96.088806 423.0 
97.06498 257.0 
97.103584 216.0 
98.732491 156.0 
99.083168 286.0 
100.081848 102.0 
102.855545 272.0 
103.053719 402.0 
103.385338 67.0 
105.009895 224.0 
105.045471 584.0 
105.06916 8676.0 
105.098999 188.0 
105.48494 172.0 
105.941216 135.0 
106.072807 715.0 
106.762245 364.0 
107.030731 404.0 
107.049118 5999.0 
107.084724 8343.0 
107.419731 97.0 
107.556595 119.0 
108.0308 132.0 
108.051582 498.0 
108.090096 556.0 
109.049675 199.0 
109.100578 12488.0 
109.703629 208.0 
110.103981 1357.0 
111.07811 159.0 
111.117455 123.0 
113.083427 168.0 
113.100441 144.0 
115.053696 195.0 
117.040749 216.0 
117.069832 1088.0 
118.039467 193.0 
118.075317 192.0 
118.209526 386.0 
119.049187 5048.0 
119.084877 11989.0 
120.05426 262.0 
120.088547 1201.0 
121.066956 189.0 
121.101112 6118.0 
122.105011 965.0 
123.045616 120.0 
123.079491 98.0 
123.114784 2310.0 
124.116173 251.0 
128.062759 367.0 
129.070816 563.0 
130.081192 163.0 
131.047729 231.0 
131.085052 978.0 
132.095306 209.0 
132.175995 244.0 
132.605606 100.0 
133.071426 438.0 
133.100693 12611.0 
133.285187 141.0 
134.103348 750.0 
135.04126 1416.0 
135.117355 9495.0 
136.045578 264.0 
136.120102 457.0 
137.131653 3509.0 
137.265671 251.0 
138.135925 302.0 
139.112869 203.0 
140.2509 277.0 
145.02713 519.0 
145.100647 2201.0 
145.662704 101.0 
147.041275 523.0 
147.075699 221.0 
147.116516 20051.0 
147.274948 226.0 
148.119095 1371.0 
149.132492 1207.0 
151.01944 153.0 
151.113785 146.0 
151.147736 603.0 
154.38855 89.0 
155.048523 416.0 
155.08667 469.0 
157.063904 360.0 
157.816574 232.0 
159.042053 1026.0 
159.115875 971.0 
159.637924 107.0 
160.055359 297.0 
160.123718 1305.0 
160.517853 191.0 
161.060074 110.0 
161.132294 11376.0 
162.134995 842.0 
162.863541 190.0 
162.922379 294.0 
162.953903 250.0 
163.038574 129031.0 
163.148132 3736.0 
163.226898 99.0 
163.458267 180.0 
163.69899 175.0 
164.040573 9267.0 
164.154175 255.0 
164.432251 81.0 
165.047287 564.0 
165.142059 186.0 
165.177353 119.0 
165.220383 145.0 
165.288071 98.0 
165.384918 97.0 
165.407745 95.0 
165.444794 148.0 
167.021866 186.0 
167.088928 292.0 
171.043747 613.0 
171.411026 82.0 
172.382492 262.0 
172.545013 203.0 
172.584488 301.0 
173.007996 113.0 
173.031555 243.0 
173.062424 1223.0 
173.12973 991.0 
173.316528 222.0 
174.061829 563.0 
174.139725 187.0 
175.036911 3415.0 
175.111786 131.0 
175.146561 3544.0 
176.042206 314.0 
176.151596 420.0 
177.05722 259.0 
177.162796 419.0 
178.164764 449.0 
179.177979 329.0 
179.959976 79.0 
180.060959 217.0 
181.037628 161.0 
183.077133 173.0 
183.868362 98.0 
185.060837 972.0 
186.065048 343.0 
187.035797 1295.0 
187.0728 1101.0 
188.160477 190.0 
189.054626 2840.0 
190.054825 600.0 
190.169968 557.0 
191.066605 191.0 
191.18399 198.0 
193.057632 163.0 
193.200729 191.0 
197.055679 146.0 
199.03775 4724.0 
199.078598 157.0 
200.042236 1054.0 
201.055405 2728.0 
201.16275 140.0 
201.260605 179.0 
202.056473 433.0 
203.050812 169.0 
203.128128 513.0 
203.178894 31330.0 
204.182632 4655.0 
211.079727 83.0 
212.052094 116.0 
212.931793 236.0 
213.011017 386.0 
213.052277 5291.0 
214.057144 490.0 
214.898849 248.0 
215.068314 6188.0 
216.071075 731.0 
216.110565 209.0 
217.065613 207.0 
221.188553 454.0 
221.369781 146.0 
225.052567 159.0 
227.069885 1788.0 
227.936066 128.0 
228.071243 256.0 
229.085831 4049.0 
229.192261 105.0 
229.549271 146.0 
230.085739 623.0 
231.102066 2507.0 
233.079865 144.0 
234.147324 182.0 
239.066589 241.0 
240.92334 150.0 
241.081863 834.0 
242.0616 198.0 
242.092484 391.0 
243.101715 352.0 
245.117401 116.0 
247.064438 206.0 
249.088318 157.0 
253.083679 196.0 
253.65126 145.0 
254.46904 79.0 
255.101761 1487.0 
256.108795 105.0 
257.117004 246.0 
263.200958 160.0 
265.091522 367.0 
267.10141 867.0 
269.118805 1537.0 
270.125824 650.0 
271.13028 969.0 
281.11496 864.0 
283.13855 386.0 
294.77063 253.0 
295.134399 605.0 
296.137238 134.0 
297.122314 153.0 
309.037231 212.0 
309.147949 1393.0 
310.146545 436.0 
323.15921 698.0 
361.286224 87.0 
364.285339 205.0 
364.533997 175.0 
365.210632 12619.0 
365.685699 112.0 
365.863678 205.0 
366.213806 2855.0 
366.261566 169.0 
368.492188 115.0 
383.12262 148.0 
383.222046 16947.0 
384.166718 310.0 
384.223877 3807.0 
384.287537 124.0 
389.178101 125.0 
395.410156 88.0 
425.239777 107.0 
443.265015 369.0 
446.794922 125.0 
1167.479858 236.0 
1316.491943 194.0 
1442.576782 182.0 
1458.520142 98.0 
1479.082153 431.0 
1680.953125 240.0 
1684.432495 174.0 
1707.080078 148.0 
1890.925293 292.0 
1914.594604 251.0 
1955.336426 281.0 
1993.477417 161.0 
1994.554932 94.0 
END IONS

BEGIN IONS
TITLE=Scan Number: 173
PEPMASS=425.23199
CHARGE=1+
MSLEVEL=2
FILENAME=E8_RE8_01_2942.mzXML
INSTRUMENT=ion trap
SCANS=173
SMILES=CC(=O)OC1CCC2(C)C(COC3=CC=C4C=CC(=O)OC4=C3)C(C)(O)CCC2C1(C)C
INCHIKEY=RIPKCRCUFJSKKD-UHFFFAOYSA-N
77.033081 141.0 
79.04084 177.0 
81.068031 466.0 
83.07737 141.0 
91.052757 1394.0 
92.060753 202.0 
93.054146 280.0 
93.071014 878.0 
95.083832 1726.0 
96.088631 522.0 
96.30938 111.0 
103.056213 157.0 
105.044685 167.0 
105.069519 3249.0 
106.072708 687.0 
107.047478 1683.0 
107.085648 2333.0 
108.050583 780.0 
108.08963 225.0 
109.099831 1680.0 
110.102982 175.0 
115.234596 305.0 
117.03405 173.0 
117.068993 566.0 
118.07325 627.0 
119.050682 1438.0 
119.084023 4065.0 
120.054604 634.0 
120.089027 526.0 
121.066399 138.0 
121.098282 816.0 
122.10141 425.0 
123.112511 781.0 
128.061813 261.0 
129.070419 516.0 
130.074493 303.0 
131.087357 140.0 
132.089783 292.0 
133.064575 572.0 
133.099533 1735.0 
134.092651 205.0 
134.107803 345.0 
135.043198 526.0 
135.113632 1444.0 
137.049591 150.0 
137.099243 142.0 
137.131393 654.0 
138.129898 132.0 
138.581375 91.0 
141.014587 121.0 
143.082642 125.0 
144.054169 308.0 
144.09314 158.0 
145.065659 131.0 
145.100555 1366.0 
146.104156 1019.0 
147.047607 484.0 
147.086807 227.0 
147.115799 1436.0 
148.119247 630.0 
149.12764 182.0 
156.078644 215.0 
157.494308 246.0 
158.10704 171.0 
159.043243 602.0 
159.112259 700.0 
160.004425 123.0 
160.045685 143.0 
160.124557 442.0 
161.130035 1938.0 
162.133759 366.0 
162.926361 165.0 
162.994537 508.0 
163.037857 24005.0 
163.149139 343.0 
163.233246 94.0 
164.042053 3843.0 
165.044449 513.0 
165.174805 129.0 
165.283752 176.0 
167.079926 110.0 
168.157883 178.0 
171.085968 238.0 
172.050491 138.0 
172.583694 106.0 
173.062317 265.0 
173.130127 115.0 
174.136337 399.0 
175.037735 1292.0 
175.07254 163.0 
175.149002 440.0 
183.031403 143.0 
185.058395 87.0 
186.062088 151.0 
187.039917 229.0 
187.15007 131.0 
189.052139 246.0 
189.162292 149.0 
198.855789 267.0 
198.979782 308.0 
199.036621 1544.0 
200.033905 292.0 
201.054123 1341.0 
201.161728 102.0 
202.059677 253.0 
202.164963 424.0 
203.065964 98.0 
203.178268 4309.0 
204.177673 341.0 
211.079605 299.0 
213.052902 2058.0 
213.520966 82.0 
214.056442 254.0 
215.069931 1592.0 
216.07225 937.0 
223.06073 212.0 
227.070877 423.0 
227.108521 106.0 
227.8815 149.0 
228.047714 116.0 
229.08905 686.0 
229.728424 130.0 
240.068024 168.0 
243.099976 101.0 
243.174789 139.0 
253.092377 264.0 
254.093765 182.0 
256.101685 316.0 
267.102417 170.0 
269.116913 553.0 
270.084076 134.0 
270.128662 160.0 
271.113281 159.0 
279.097137 155.0 
281.112793 234.0 
282.109192 127.0 
295.093658 170.0 
295.123016 118.0 
297.146088 276.0 
301.929352 94.0 
309.130096 230.0 
336.150085 90.0 
339.132172 187.0 
354.252045 170.0 
357.247528 102.0 
363.167206 83.0 
365.211517 2850.0 
366.204529 322.0 
407.252319 108.0 
425.29834 116.0 
1764.820923 475.0 
1832.720093 317.0 
1905.088257 296.0 
END IONS

BEGIN IONS
TITLE=Scan Number: 175
PEPMASS=493.134
CHARGE=1+
MSLEVEL=2
FILENAME=E8_RE8_01_2942.mzXML
INSTRUMENT=ion trap
SCANS=175
SMILES=COC1=CC(=CC(OC)=C1O)C2=CC(=O)C3=C(O[C@@H]4O[C@H](CO)[C@@H](O)[C@H](O)[C@H]4O)C=C(O)C=C3O2
INCHIKEY=FLSOTPIEFVBPBU-LDBVRRDLSA-N
70.036263 259.0 
70.26075 244.0 
70.976105 157.0 
71.440056 424.0 
71.593033 174.0 
72.73185 110.0 
73.027596 152.0 
73.726059 293.0 
74.724174 273.0 
75.854057 255.0 
76.069817 173.0 
78.293419 312.0 
79.069801 223.0 
81.032425 1722.0 
82.704201 257.0 
84.131531 274.0 
85.027054 4328.0 
86.030464 348.0 
87.04351 559.0 
87.706627 199.0 
88.30619 275.0 
91.040054 409.0 
93.365883 162.0 
95.253181 111.0 
96.527771 177.0 
96.996857 261.0 
97.026787 2890.0 
97.336159 237.0 
97.605225 134.0 
98.030624 256.0 
98.362457 267.0 
98.541298 209.0 
99.041824 567.0 
99.616112 230.0 
99.922745 171.0 
100.77639 401.0 
107.116295 253.0 
107.539009 190.0 
109.026131 838.0 
109.065414 155.0 
109.24884 177.0 
110.030861 97.0 
110.358215 170.0 
111.299294 254.0 
112.173042 257.0 
115.037819 454.0 
115.177658 220.0 
117.051086 135.0 
118.58596 126.0 
119.696548 187.0 
119.975891 201.0 
122.177185 198.0 
122.233902 73.0 
124.634636 190.0 
127.035957 1892.0 
128.027344 178.0 
129.358231 200.0 
132.784729 158.0 
133.450363 191.0 
135.572327 229.0 
137.031036 282.0 
137.92395 78.0 
140.37561 110.0 
141.054184 105.0 
142.666702 216.0 
144.521683 359.0 
145.029175 165.0 
145.048477 1173.0 
145.164444 255.0 
146.026016 187.0 
146.051224 130.0 
151.131989 202.0 
152.14624 170.0 
153.017502 1525.0 
154.023132 796.0 
154.123047 212.0 
156.084915 378.0 
163.037628 660.0 
164.052521 140.0 
165.058365 146.0 
166.0495 270.0 
166.375946 458.0 
169.061264 125.0 
169.111588 238.0 
171.168808 175.0 
171.190811 129.0 
172.025497 241.0 
176.033264 152.0 
178.024704 2352.0 
178.57338 101.0 
179.03067 513.0 
179.071869 653.0 
181.046204 386.0 
183.670425 179.0 
185.698959 369.0 
186.029602 372.0 
186.067307 218.0 
186.320358 242.0 
186.465088 175.0 
188.576797 205.0 
190.028214 168.0 
190.997147 139.0 
191.629318 163.0 
192.039261 196.0 
196.779495 158.0 
197.107178 153.0 
203.033325 375.0 
203.065399 129.0 
207.174896 305.0 
207.860748 228.0 
207.985504 299.0 
209.299088 211.0 
210.013184 125.0 
212.632874 167.0 
213.051544 225.0 
214.035019 349.0 
214.066772 108.0 
214.566711 132.0 
215.071182 152.0 
215.894745 329.0 
216.384293 145.0 
218.054077 186.0 
219.248901 134.0 
220.050552 176.0 
221.536087 118.0 
222.004501 299.0 
223.061447 99.0 
226.62674 183.0 
227.137009 222.0 
227.386795 130.0 
228.030426 234.0 
229.360886 135.0 
230.629456 257.0 
231.034927 102.0 
231.142258 170.0 
231.65947 185.0 
232.803268 109.0 
233.682175 200.0 
233.879272 209.0 
234.1577 281.0 
235.020218 149.0 
235.396423 113.0 
235.602493 203.0 
239.040039 158.0 
239.117218 168.0 
240.039047 133.0 
240.102753 274.0 
241.025391 260.0 
241.046402 270.0 
241.127533 177.0 
241.554016 239.0 
242.020462 125.0 
242.056259 5763.0 
243.061569 1854.0 
243.238922 194.0 
244.692108 135.0 
245.924149 87.0 
246.08374 169.0 
247.696854 238.0 
251.143784 167.0 
251.589691 199.0 
251.879044 292.0 
252.002991 143.0 
253.044678 1278.0 
253.39679 204.0 
254.457535 181.0 
255.027084 244.0 
255.097244 135.0 
255.886612 78.0 
257.044342 165.0 
258.049835 7777.0 
258.764465 198.0 
259.052917 1443.0 
259.31134 182.0 
263.709717 490.0 
263.967834 251.0 
264.846283 161.0 
268.039337 205.0 
268.789917 155.0 
269.035522 801.0 
269.105865 153.0 
269.325684 84.0 
269.921143 291.0 
269.978241 327.0 
270.050964 50069.0 
270.171173 136.0 
270.322235 107.0 
270.371765 94.0 
270.510223 127.0 
270.650604 146.0 
270.681641 86.0 
270.800842 89.0 
270.906769 93.0 
270.995087 87.0 
271.054169 8778.0 
271.232147 179.0 
272.057434 1137.0 
272.751801 121.0 
272.791382 160.0 
272.963318 141.0 
273.037537 7447.0 
273.11499 191.0 
273.866882 140.0 
273.97345 152.0 
274.041351 915.0 
274.1922 74.0 
279.744019 211.0 
280.369293 193.0 
281.763397 140.0 
282.044342 117.0 
282.692963 201.0 
283.543182 279.0 
283.585876 166.0 
285.032135 683.0 
285.074402 73.0 
285.452393 197.0 
285.6745 172.0 
285.790863 73.0 
285.924652 129.0 
286.0448 21152.0 
286.843658 140.0 
286.965271 195.0 
287.051819 22213.0 
287.254028 192.0 
287.97403 314.0 
288.053986 4192.0 
288.347748 190.0 
289.058838 254.0 
289.81543 110.0 
291.889526 123.0 
292.861359 191.0 
294.36795 190.0 
297.902924 328.0 
298.045746 2750.0 
298.294067 257.0 
298.36322 130.0 
298.527039 323.0 
298.775696 216.0 
299.054443 4684.0 
300.054077 790.0 
300.60495 128.0 
300.876648 286.0 
301.032745 8584.0 
301.101196 301.0 
301.603363 225.0 
301.999115 341.0 
302.039948 6668.0 
302.989807 196.0 
303.039185 397.0 
303.842316 158.0 
304.042938 119.0 
304.294098 90.0 
307.290131 179.0 
308.198273 162.0 
310.174622 174.0 
311.536255 233.0 
311.667358 173.0 
312.036804 106.0 
313.035828 1268.0 
313.08255 163.0 
313.518158 149.0 
313.698395 242.0 
313.785645 192.0 
313.93927 77.0 
314.041138 316.0 
314.130951 233.0 
314.608612 159.0 
314.92038 199.0 
314.962036 1281.0 
315.047913 161722.0 
315.146332 229.0 
315.235504 460.0 
315.392334 200.0 
315.538971 292.0 
315.733612 116.0 
315.859589 87.0 
315.940491 298.0 
316.054047 55435.0 
316.215027 327.0 
316.610443 301.0 
316.779907 248.0 
316.968048 141.0 
317.060364 6141.0 
317.229797 325.0 
318.060272 602.0 
318.206177 194.0 
318.37738 92.0 
318.409058 96.0 
318.546326 80.0 
318.627258 83.0 
318.973083 134.0 
319.024536 137.0 
320.202911 379.0 
321.25647 305.0 
321.390686 170.0 
324.293945 239.0 
325.050018 168.0 
325.768402 353.0 
327.300446 116.0 
327.931824 127.0 
328.058777 108.0 
328.200714 95.0 
329.12561 288.0 
329.321075 393.0 
329.610413 114.0 
329.697937 98.0 
329.786255 100.0 
329.827118 173.0 
329.925476 193.0 
329.970337 222.0 
330.009644 204.0 
330.139038 115.0 
330.165985 167.0 
330.330078 94.0 
330.416046 222.0 
330.489136 237.0 
330.533997 151.0 
330.605957 97.0 
330.654114 355.0 
330.711914 146.0 
330.774567 330.0 
330.81015 686.0 
330.90152 1021.0 
330.971497 1664.0 
331.079559 808161.0 
331.194519 615.0 
331.273621 387.0 
331.306244 219.0 
331.347931 376.0 
331.455475 239.0 
331.492706 198.0 
331.52417 192.0 
331.555695 231.0 
331.664459 135.0 
331.735352 168.0 
331.838226 436.0 
331.941772 283.0 
332.082794 97389.0 
332.21048 181.0 
332.244415 181.0 
332.302734 491.0 
332.347504 178.0 
332.378998 276.0 
332.432343 280.0 
332.464539 176.0 
332.581482 64.0 
332.669739 213.0 
332.857635 142.0 
333.085388 4779.0 
333.193695 95.0 
333.288239 74.0 
333.680847 82.0 
333.769073 119.0 
333.972717 125.0 
334.049347 133.0 
334.106049 116.0 
334.166443 403.0 
334.190186 455.0 
334.244141 108.0 
334.279266 246.0 
334.317474 207.0 
334.381866 345.0 
334.4216 237.0 
334.447083 201.0 
334.512421 549.0 
334.619415 96.0 
334.842834 64.0 
335.237946 128.0 
335.392181 143.0 
335.482208 127.0 
336.000946 104.0 
336.489716 115.0 
337.114899 76.0 
341.133453 146.0 
341.803528 94.0 
342.99411 65.0 
343.081696 351.0 
343.686005 141.0 
344.334412 90.0 
347.164307 76.0 
349.126068 129.0 
350.249695 85.0 
357.094482 159.0 
373.095154 732.0 
374.963715 172.0 
376.374725 105.0 
397.086609 459.0 
401.040314 115.0 
407.885498 88.0 
411.098907 92.0 
439.09549 150.0 
457.155487 84.0 
458.114349 88.0 
493.120636 106.0 
493.168915 77.0 
494.292877 77.0 
598.768677 91.0 
866.792725 80.0 
1842.981079 118.0 
1932.927368 181.0 
1991.654785 202.0 
END IONS

BEGIN IONS
TITLE=Scan Number: 176
PEPMASS=546.12402
CHARGE=1+
MSLEVEL=2
FILENAME=E8_RE8_01_2942.mzXML
INSTRUMENT=ion trap
SCANS=176
SMILES=OC(=O)[C@H]1OC(=C[C@@H](OC(=O)\C=C\C2=CC=C(O)C(O)=C2)[C@H]1OC(=O)\C=C\C3=CC=C(O)C(O)=C3)C(O)=O
INCHIKEY=VOTMSYBBJIFRQZ-SGMWDQPPSA-N
86.559982 295.0 
89.039619 479.0 
89.059319 271.0 
90.322121 264.0 
95.012306 142.0 
97.02729 139.0 
98.311409 226.0 
100.825096 376.0 
107.044144 294.0 
113.967377 320.0 
117.031212 1455.0 
123.006767 6171.0 
123.042336 110.0 
124.000443 211.0 
133.084641 767.0 
135.043625 7073.0 
136.046753 174.0 
139.037247 250.0 
140.982849 128.0 
141.016632 5054.0 
142.019608 335.0 
144.31282 161.0 
145.027359 5187.0 
146.031097 237.0 
147.033752 147.0 
159.027283 214.0 
163.038757 46252.0 
163.240753 123.0 
163.976578 108.0 
164.042465 4236.0 
164.991409 207.0 
165.03949 348.0 
165.453995 177.0 
168.96846 316.0 
169.012436 20247.0 
170.015945 926.0 
171.017731 267.0 
173.053528 187.0 
177.113083 151.0 
180.037094 182.0 
181.048264 992.0 
182.053436 225.0 
187.037979 164.0 
187.076477 166.0 
197.051392 96.0 
217.049805 116.0 
226.121552 209.0 
229.052841 133.0 
235.095703 189.0 
245.04007 118.0 
257.045898 106.0 
259.060852 279.0 
285.047791 342.0 
287.150452 85.0 
295.031342 202.0 
305.065247 363.0 
330.946686 174.0 
331.047485 219.0 
331.169373 145.0 
332.043457 147.0 
349.056 5926.0 
350.02356 329.0 
350.05542 547.0 
351.052826 168.0 
352.523621 175.0 
371.218201 156.0 
383.573334 203.0 
421.184875 107.0 
517.125488 182.0 
545.135864 141.0 
803.304382 87.0 
1503.092529 204.0 
END IONS

BEGIN IONS
TITLE=Scan Number: 178
PEPMASS=286.17999
CHARGE=1+
MSLEVEL=2
FILENAME=C4_RC4_01_2747.mzXML
INSTRUMENT=ion trap
SCANS=178
SMILES=OC1C(O)C(CCC1C2=CC=CC=C2)C3=CC=CC=C3
INCHIKEY=KIDYUEHQXIEBGK-UHFFFAOYSA-N
77.029617 171.0 
79.039017 180.0 
91.054619 3990.0 
92.024445 217.0 
92.057594 185.0 
105.035103 331.0 
105.066628 165.0 
106.072716 357.0 
107.047333 181.0 
115.055954 319.0 
117.068161 314.0 
128.06163 562.0 
128.990952 149.0 
129.069839 4349.0 
130.07164 300.0 
131.085434 917.0 
131.932251 162.0 
133.067215 227.0 
141.071625 184.0 
145.098618 126.0 
154.068329 210.0 
155.044647 527.0 
155.086533 1116.0 
167.086288 715.0 
167.913879 129.0 
168.083038 176.0 
173.097092 204.0 
178.08046 359.0 
191.083252 339.0 
203.08873 168.0 
204.092926 185.0 
205.102158 162.0 
206.101471 328.0 
208.065445 148.0 
217.101913 130.0 
233.09642 188.0 
233.134216 5138.0 
251.146149 288.0 
286.093018 146.0 
END IONS

BEGIN IONS
TITLE=Scan Number: 179
PEPMASS=317.10199
CHARGE=1+
MSLEVEL=2
FILENAME=C4_RC4_01_2747.mzXML
INSTRUMENT=ion trap
SCANS=179
SMILES=COC(=O)CC1CC2=C(C(C)O1)C(=O)C3=C(O)C=CC=C3C2=O
INCHIKEY=FMEUWIKCSICJBO-UHFFFAOYSA-N
91.057961 202.0 
102.966713 237.0 
105.074623 287.0 
116.056091 221.0 
119.047234 250.0 
121.029213 314.0 
129.074738 163.0 
131.050217 130.0 
131.083496 371.0 
141.069336 1320.0 
142.047455 152.0 
143.084183 315.0 
145.061508 169.0 
148.113724 130.0 
149.018478 134.0 
149.036774 221.0 
150.023254 119.0 
151.053818 266.0 
152.067719 172.0 
153.069305 554.0 
155.083908 491.0 
157.018967 214.0 
157.067078 263.0 
164.061951 163.0 
165.037155 199.0 
165.068985 619.0 
166.069473 530.0 
167.037506 160.0 
167.086288 180.0 
168.058243 164.0 
169.068665 1671.0 
173.023743 248.0 
173.057816 1284.0 
175.042389 202.0 
177.072571 216.0 
181.057373 133.0 
183.078735 311.0 
185.064178 85.0 
186.635315 127.0 
187.073135 840.0 
187.101059 257.0 
187.652252 137.0 
188.082184 559.0 
193.065109 430.0 
194.070953 382.0 
195.082428 166.0 
196.052551 259.0 
197.05896 2686.0 
199.073578 339.0 
200.047714 158.0 
201.051483 744.0 
202.057663 175.0 
203.093201 267.0 
206.973343 85.0 
211.075729 1508.0 
212.071426 247.0 
213.056763 239.0 
214.049377 242.0 
215.071121 2343.0 
216.072647 121.0 
217.056503 196.0 
218.051834 122.0 
220.946365 247.0 
221.063553 434.0 
222.065613 475.0 
223.076859 171.0 
225.054657 1686.0 
226.028976 81.0 
226.059998 678.0 
227.068024 210.0 
229.092819 441.0 
230.052811 159.0 
238.058334 163.0 
238.662354 149.0 
239.071335 5509.0 
239.271576 219.0 
240.059479 197.0 
241.076294 263.0 
243.06308 1401.0 
243.951691 238.0 
244.069305 248.0 
253.086044 415.0 
257.078186 425.0 
258.078217 119.0 
267.071106 137.0 
281.078644 119.0 
287.520081 112.0 
294.047211 119.0 
299.088348 501.0 
300.102356 271.0 
300.169098 164.0 
317.101685 880.0 
END IONS

BEGIN IONS
TITLE=Scan Number: 180
PEPMASS=334.129
CHARGE=1+
MSLEVEL=2
FILENAME=C4_RC4_01_2747.mzXML
INSTRUMENT=ion trap
SCANS=180
SMILES=COC(=O)CC1CC2=C(C(C)O1)C(=O)C3=C(O)C=CC=C3C2=O
INCHIKEY=FMEUWIKCSICJBO-UHFFFAOYSA-N
79.050018 159.0 
89.033607 195.0 
105.047409 297.0 
115.049637 111.0 
117.068268 181.0 
119.961456 292.0 
121.029282 208.0 
125.003296 207.0 
129.071625 486.0 
131.083893 434.0 
136.012894 235.0 
141.073654 140.0 
144.060532 182.0 
149.02095 131.0 
149.358459 158.0 
150.020782 182.0 
152.062149 187.0 
153.070969 111.0 
155.058716 227.0 
155.087509 109.0 
159.078659 134.0 
160.06131 308.0 
160.090698 160.0 
165.067703 432.0 
168.053513 186.0 
169.063019 972.0 
170.904678 150.0 
171.041351 271.0 
171.077835 237.0 
173.059158 676.0 
179.048843 112.0 
180.0578 104.0 
183.084671 228.0 
184.066299 170.0 
187.052872 166.0 
187.076584 164.0 
193.059219 647.0 
197.016846 165.0 
197.060577 1959.0 
197.376282 102.0 
198.060364 348.0 
199.035873 255.0 
199.389175 93.0 
200.043015 126.0 
201.053253 688.0 
203.034332 117.0 
207.044739 145.0 
210.065369 177.0 
211.076065 926.0 
212.066788 325.0 
213.081909 201.0 
214.066208 262.0 
215.065125 1651.0 
216.069855 263.0 
217.034515 213.0 
217.076584 142.0 
221.059006 249.0 
225.055862 1724.0 
226.062302 617.0 
226.827789 260.0 
229.086075 482.0 
238.036743 204.0 
239.032242 184.0 
239.069504 5467.0 
239.42305 129.0 
240.076584 581.0 
243.063568 1584.0 
244.069443 175.0 
245.645309 103.0 
253.088318 166.0 
257.083038 379.0 
267.067047 221.0 
267.15802 193.0 
268.066986 128.0 
299.089905 1265.0 
300.090332 138.0 
317.063934 85.0 
317.105652 1224.0 
318.100372 117.0 
331.027771 121.0 
470.092834 128.0 
END IONS

BEGIN IONS
TITLE=Scan Number: 182
PEPMASS=336.108
CHARGE=1+
MSLEVEL=2
FILENAME=C4_RC4_01_2747.mzXML
INSTRUMENT=ion trap
SCANS=182
SMILES=CC1OC(CC(O)=O)CC23OC12C(=O)C4=C(O)C=CC=C4C3=O
INCHIKEY=SVGOJJZXRJJDLY-UHFFFAOYSA-N
71.910507 254.0 
79.021751 913.0 
80.027115 207.0 
81.01535 259.0 
81.256401 87.0 
91.054359 428.0 
99.487076 212.0 
101.947365 174.0 
105.03553 142.0 
109.062187 252.0 
111.045616 970.0 
115.050987 272.0 
116.005028 187.0 
117.500893 307.0 
118.003281 240.0 
119.013504 192.0 
119.047478 134.0 
121.000328 224.0 
121.027519 2311.0 
122.030426 254.0 
124.321594 341.0 
128.058594 281.0 
129.066544 184.0 
131.51178 229.0 
134.035126 240.0 
137.06044 139.0 
137.972412 170.0 
138.099472 221.0 
141.067337 312.0 
143.015625 197.0 
144.059082 136.0 
145.065689 617.0 
149.019836 384.0 
152.041443 254.0 
152.061661 467.0 
153.063675 286.0 
155.064713 545.0 
155.295898 267.0 
157.066086 1460.0 
158.068542 537.0 
159.043289 912.0 
160.044098 197.0 
161.015228 154.0 
161.060257 477.0 
163.039719 155.0 
165.020935 568.0 
165.073013 417.0 
167.050461 353.0 
167.817871 174.0 
168.05542 323.0 
168.721344 88.0 
169.066116 504.0 
171.041428 205.0 
171.083145 1035.0 
172.048523 138.0 
173.060181 191.0 
175.076233 165.0 
176.043961 194.0 
177.055161 233.0 
178.06427 300.0 
181.064255 705.0 
182.070587 315.0 
183.042114 169.0 
183.082733 141.0 
184.048828 296.0 
185.028625 321.0 
185.059647 2503.0 
186.067383 185.0 
187.075912 747.0 
189.018265 227.0 
189.055908 740.0 
190.05864 144.0 
191.018677 334.0 
192.3284 256.0 
193.063812 193.0 
195.055374 164.0 
195.084061 233.0 
195.980759 176.0 
197.059509 327.0 
197.977158 174.0 
198.03508 93.0 
198.802002 296.0 
199.038925 409.0 
199.078247 693.0 
200.050156 392.0 
200.979614 129.0 
201.059433 817.0 
203.070358 293.0 
204.077652 142.0 
207.027893 401.0 
208.046722 83.0 
209.062119 440.0 
210.069397 628.0 
210.766418 198.0 
211.078033 1649.0 
212.044464 124.0 
212.069839 195.0 
213.058044 5640.0 
214.024109 150.0 
214.063217 596.0 
215.036316 426.0 
215.069489 1020.0 
216.07019 323.0 
217.052887 163.0 
223.052231 230.0 
226.06633 443.0 
226.997513 119.0 
227.04155 212.0 
227.072571 3546.0 
228.071503 559.0 
229.049118 2673.0 
229.780136 159.0 
230.054688 290.0 
231.065643 346.0 
233.046143 345.0 
234.016266 123.0 
237.057709 741.0 
239.071365 422.0 
241.050873 5650.0 
241.086685 412.0 
242.05513 983.0 
243.00032 145.0 
243.056747 178.0 
252.003067 179.0 
255.068085 3113.0 
256.069763 188.0 
257.01712 130.0 
257.081085 171.0 
258.017853 159.0 
258.057831 98.0 
259.060242 1889.0 
260.064453 462.0 
261.027802 222.0 
261.066223 161.0 
262.044983 249.0 
265.054504 158.0 
267.027008 225.0 
268.035065 146.0 
269.00061 286.0 
270.020386 204.0 
273.082275 318.0 
275.05896 551.0 
278.039764 87.0 
280.997986 475.0 
283.060211 1816.0 
284.021484 173.0 
285.049438 149.0 
286.01474 135.0 
287.032196 335.0 
289.041138 395.0 
290.050262 108.0 
298.233917 248.0 
301.073273 688.0 
302.07785 324.0 
305.04245 194.0 
305.075073 150.0 
307.05365 232.0 
311.039612 162.0 
313.036865 344.0 
314.049225 568.0 
315.025177 129.0 
315.054688 132.0 
318.037903 95.0 
330.023193 180.0 
330.995514 147.0 
331.050171 701.0 
331.530304 89.0 
332.029572 159.0 
333.042725 138.0 
333.837677 101.0 
335.130035 163.0 
336.182648 157.0 
338.028809 168.0 
349.07077 180.0 
351.056793 130.0 
354.03833 197.0 
364.010162 162.0 
365.042694 133.0 
366.047516 171.0 
373.040375 291.0 
373.08194 203.0 
375.040314 211.0 
391.046783 357.0 
410.063751 264.0 
412.073242 235.0 
417.015839 204.0 
442.069946 199.0 
1651.761108 249.0 
1670.97168 355.0 
END IONS

BEGIN IONS
TITLE=Scan Number: 184
PEPMASS=565.15503
CHARGE=1+
MSLEVEL=2
FILENAME=C4_RC4_01_2747.mzXML
INSTRUMENT=ion trap
SCANS=184
SMILES=OCC1OC(OC2=CC3=C(C(=O)C=C(O3)C4=CC=C(O)C=C4)C(O)=C2)C(OC5OCC(O)(CO)C5O)C(O)C1O
INCHIKEY=NTDLXWMIWOECHG-UHFFFAOYSA-N
73.602669 336.0 
74.700645 197.0 
85.007011 262.0 
85.027863 557.0 
86.031319 141.0 
87.043678 617.0 
87.986412 252.0 
91.04998 134.0 
93.907158 227.0 
97.027466 676.0 
101.018188 124.0 
103.037254 98.0 
109.030945 150.0 
110.074989 202.0 
111.107132 256.0 
111.704315 108.0 
113.023552 188.0 
114.423332 192.0 
115.028694 264.0 
115.093796 183.0 
119.046608 1331.0 
121.027824 197.0 
125.597343 144.0 
127.054214 237.0 
127.563126 432.0 
128.182373 214.0 
129.679947 114.0 
130.020447 132.0 
133.050735 291.0 
133.805313 241.0 
134.805008 153.0 
138.999573 174.0 
139.807816 95.0 
141.067719 198.0 
143.354034 174.0 
145.026154 701.0 
145.526886 171.0 
146.673615 354.0 
152.66217 215.0 
152.848267 281.0 
152.988434 350.0 
153.018082 4812.0 
154.022797 355.0 
155.027145 282.0 
156.05188 186.0 
156.103043 166.0 
158.029053 255.0 
158.288101 156.0 
163.042145 634.0 
165.112656 198.0 
167.451477 171.0 
167.759369 239.0 
170.885788 175.0 
171.03302 347.0 
172.313049 155.0 
174.185196 207.0 
176.178543 307.0 
181.488358 232.0 
185.664505 79.0 
187.039658 221.0 
191.908371 246.0 
194.766541 210.0 
194.914871 184.0 
195.02887 98.0 
199.618347 134.0 
200.162048 183.0 
202.069916 282.0 
203.06398 353.0 
207.091736 216.0 
215.065994 86.0 
225.053421 822.0 
227.064423 202.0 
229.059464 162.0 
229.365265 194.0 
235.066788 260.0 
237.664871 209.0 
237.892746 281.0 
238.281067 282.0 
241.067963 368.0 
244.036499 120.0 
247.061859 497.0 
249.80072 202.0 
250.543472 223.0 
253.063187 240.0 
254.66272 196.0 
255.187164 242.0 
258.785736 157.0 
259.658875 229.0 
261.322388 146.0 
262.963684 192.0 
267.596191 127.0 
268.236389 86.0 
268.31958 104.0 
268.743622 170.0 
268.855988 107.0 
268.89035 112.0 
269.082336 184.0 
269.710571 296.0 
269.872681 103.0 
269.900208 168.0 
270.0159 216.0 
270.165894 163.0 
270.34201 195.0 
270.37085 351.0 
270.553223 263.0 
270.595642 285.0 
270.724945 511.0 
270.784851 513.0 
270.875183 104.0 
270.965332 999.0 
271.060364 515894.0 
271.145264 623.0 
271.233917 349.0 
271.27182 276.0 
271.356049 139.0 
271.453247 93.0 
271.504456 370.0 
271.563507 332.0 
271.622681 83.0 
271.658844 208.0 
271.792328 242.0 
271.922485 408.0 
272.063385 60261.0 
272.147186 107.0 
272.896698 104.0 
272.919708 233.0 
272.994965 199.0 
273.063843 3715.0 
273.171814 153.0 
273.37674 152.0 
273.551971 136.0 
273.676788 119.0 
273.825562 103.0 
273.947266 286.0 
274.056488 229.0 
274.077759 352.0 
274.126587 127.0 
274.1987 180.0 
275.007935 123.0 
279.3237 101.0 
281.521423 102.0 
281.936676 104.0 
282.205444 177.0 
283.061188 181.0 
283.634766 122.0 
284.343231 102.0 
286.675232 110.0 
288.786713 89.0 
288.881134 121.0 
293.954926 119.0 
300.398102 102.0 
302.135834 93.0 
303.765198 127.0 
311.911926 116.0 
338.139221 101.0 
385.080139 121.0 
397.089294 156.0 
403.116486 343.0 
415.101624 178.0 
433.069092 193.0 
433.115967 4246.0 
434.110992 325.0 
498.811249 71.0 
565.157715 5116.0 
566.172485 1201.0 
567.183655 166.0 
568.554504 84.0 
1731.696533 115.0 
1964.507812 201.0 
END IONS

BEGIN IONS
TITLE=Scan Number: 187
PEPMASS=944.55798
CHARGE=1+
MSLEVEL=2
FILENAME=C4_RC4_01_2747.mzXML
INSTRUMENT=ion trap
SCANS=187
SMILES=CC1OC(OC2C(O)C(O)C(CO)OC2OC3C(O)C(O)C(OC3O[C@H]4CC[C@@]5(C)C(CC[C@]6(C)C5CC=C7[C@@H]8CC(C)(C)C[C@@H](O)[C@]8(C)CC[C@@]67C)C4(C)C)C(O)=O)C(O)C(O)C1O
INCHIKEY=ISTWCKNDZOSMPU-CIORFEAFSA-N
71.049278 1529.0 
75.043381 331.0 
81.033455 151.0 
81.069397 374.0 
83.050659 236.0 
83.088066 238.0 
85.028854 3197.0 
91.038086 183.0 
95.084808 1042.0 
97.027397 378.0 
97.103249 316.0 
97.65435 150.0 
101.060265 247.0 
107.087936 1035.0 
109.101944 1275.0 
110.106194 238.0 
110.764168 161.0 
110.884674 219.0 
111.042458 562.0 
111.475891 249.0 
112.153358 176.0 
121.099411 1303.0 
123.117447 483.0 
125.134148 178.0 
127.039444 182.0 
129.055038 3461.0 
130.055176 201.0 
130.986008 200.0 
131.038071 298.0 
131.087616 131.0 
133.100403 1196.0 
135.117096 1546.0 
136.119705 367.0 
137.132172 1408.0 
139.030151 200.0 
139.11058 142.0 
141.018723 4247.0 
141.218933 194.0 
143.015854 96.0 
145.048813 519.0 
145.099335 175.0 
146.828033 192.0 
147.065765 2744.0 
147.116226 333.0 
148.076111 472.0 
149.133774 2814.0 
150.133194 236.0 
151.036835 118.0 
159.028381 760.0 
159.118408 198.0 
160.032242 213.0 
160.116608 110.0 
161.035309 216.0 
161.137634 789.0 
162.135727 392.0 
163.058487 1781.0 
163.117142 367.0 
163.148727 394.0 
164.062088 158.0 
164.155502 344.0 
165.051682 140.0 
165.163422 191.0 
167.036621 150.0 
169.049957 153.0 
171.061996 338.0 
173.133972 516.0 
175.147125 1435.0 
176.122818 316.0 
176.16571 264.0 
177.038467 135.0 
177.163055 1938.0 
178.166916 313.0 
179.120865 206.0 
179.159912 175.0 
180.086594 366.0 
181.070969 174.0 
183.037827 257.0 
184.030121 125.0 
185.042648 182.0 
187.034698 144.0 
187.1465 317.0 
189.163345 453.0 
190.162033 172.0 
191.147537 362.0 
191.179047 1636.0 
192.148087 160.0 
193.086136 95.0 
194.997055 131.0 
197.044968 116.0 
199.149582 128.0 
201.165665 561.0 
202.162476 202.0 
203.096359 122.0 
203.139145 188.0 
203.17981 2032.0 
204.178345 213.0 
205.142044 138.0 
205.197464 2644.0 
205.326904 182.0 
207.175766 335.0 
207.203094 170.0 
211.209732 165.0 
213.077774 347.0 
215.180023 1977.0 
216.189224 209.0 
217.196854 2234.0 
218.196793 160.0 
219.016159 232.0 
219.177017 1090.0 
220.178421 156.0 
221.188095 260.0 
221.226044 126.0 
227.176392 167.0 
229.071701 148.0 
229.198135 2104.0 
231.096558 168.0 
231.20491 140.0 
233.191086 556.0 
234.1922 297.0 
237.0298 167.0 
237.079071 245.0 
241.196991 306.0 
242.187851 266.0 
243.206635 156.0 
245.182846 147.0 
245.219589 488.0 
247.079407 194.0 
247.209396 784.0 
251.054993 252.0 
255.088104 725.0 
256.059387 133.0 
256.217255 115.0 
257.227234 1393.0 
259.211945 435.0 
261.038055 119.0 
262.227081 200.0 
265.266907 229.0 
269.063416 399.0 
269.225586 431.0 
270.199524 139.0 
271.2435 440.0 
273.096497 167.0 
273.223572 227.0 
273.269165 196.0 
274.101379 115.0 
275.237366 719.0 
275.288391 241.0 
276.243896 201.0 
277.059052 114.0 
277.094879 87.0 
279.040375 691.0 
283.244598 84.0 
286.281555 314.0 
287.074677 1473.0 
288.246857 143.0 
289.257721 155.0 
293.008667 327.0 
296.629395 226.0 
298.251984 124.0 
301.250092 292.0 
303.075043 153.0 
305.085144 1193.0 
306.087402 257.0 
306.710999 87.0 
309.120636 2174.0 
310.11673 211.0 
313.298157 237.0 
315.26828 204.0 
321.07077 143.0 
323.09964 2157.0 
324.042999 99.0 
326.146576 89.0 
331.095276 190.0 
339.093628 1119.0 
340.095917 253.0 
340.303955 209.0 
341.093048 296.0 
341.275421 113.0 
342.109375 183.0 
343.297974 138.0 
343.327423 160.0 
344.614105 173.0 
353.31839 472.0 
357.108307 110.0 
367.341614 300.0 
383.328888 176.0 
395.053925 136.0 
407.09491 152.0 
407.368469 4400.0 
408.37616 1792.0 
422.069641 155.0 
423.351501 191.0 
425.379242 13851.0 
426.061218 191.0 
426.38443 3959.0 
427.383667 335.0 
427.433746 148.0 
433.47644 119.0 
442.377289 160.0 
467.128754 137.0 
482.094421 146.0 
485.153198 414.0 
541.11853 169.0 
599.381714 104.0 
601.407288 95.0 
602.138062 97.0 
793.303162 176.0 
798.466492 213.0 
899.354553 108.0 
943.298279 124.0 
946.188293 154.0 
1315.602539 116.0 
1333.602417 136.0 
1852.938965 193.0 
1938.329834 253.0 
END IONS

BEGIN IONS
TITLE=Scan Number: 188
PEPMASS=179.034
CHARGE=1+
MSLEVEL=2
FILENAME=A5_RA5_01_2658.mzXML
INSTRUMENT=ion trap
SCANS=188
SMILES=OC1=C(O)C=C2C=CC(=O)OC2=C1
INCHIKEY=ILEDWLMCKZNDJK-UHFFFAOYSA-N
77.013237 189.0 
77.037727 4114.0 
81.034119 130.0 
89.037148 586.0 
90.041527 514.0 
95.049576 1434.0 
96.048073 193.0 
100.999611 139.0 
105.003418 363.0 
105.042053 7319.0 
106.039604 512.0 
106.625458 78.0 
107.047646 210.0 
109.026802 218.0 
112.352501 309.0 
114.371231 230.0 
122.939156 109.0 
123.043533 25533.0 
123.385521 124.0 
124.04174 493.0 
131.172073 99.0 
132.942612 212.0 
132.998001 138.0 
133.02774 10577.0 
133.198792 105.0 
134.034851 802.0 
135.046051 632.0 
142.969437 120.0 
151.039856 2315.0 
159.008453 198.0 
179.032745 23691.0 
179.203415 261.0 
179.998047 159.0 
180.040115 440.0 
180.952332 148.0 
1459.224609 285.0 
1577.47522 204.0 
END IONS

BEGIN IONS
TITLE=Scan Number: 189
PEPMASS=239.091
CHARGE=1+
MSLEVEL=2
FILENAME=A5_RA5_01_2658.mzXML
INSTRUMENT=ion trap
SCANS=189
SMILES=COC1=CC(=CC(OC)=C1OC)\C=C\C(O)=O
INCHIKEY=YTFVRYKNXDADBI-SNAWJCMRSA-N
76.029259 1118.0 
76.873413 113.0 
77.037346 2581.0 
77.379478 213.0 
78.046066 6597.0 
78.410652 177.0 
79.017807 217.0 
79.053711 9313.0 
79.857315 177.0 
80.060692 708.0 
80.521172 105.0 
81.064362 134.0 
82.037598 256.0 
83.009865 300.0 
83.515709 215.0 
84.020454 287.0 
84.218475 217.0 
84.336876 131.0 
84.540787 255.0 
85.139839 196.0 
86.217697 200.0 
88.020538 333.0 
89.014771 231.0 
89.03804 9297.0 
89.564812 314.0 
90.046165 4533.0 
90.485771 264.0 
91.054047 21377.0 
91.403038 88.0 
92.025269 5588.0 
92.057655 1916.0 
92.939781 125.0 
93.031097 821.0 
93.06945 1211.0 
93.529625 246.0 
94.042503 1007.0 
94.516533 199.0 
94.930252 102.0 
95.048683 5340.0 
95.110458 98.0 
96.05088 470.0 
96.099495 230.0 
97.064857 221.0 
98.783699 293.0 
101.039551 314.0 
101.705269 354.0 
102.045914 21322.0 
102.816002 351.0 
103.017067 205.0 
103.053337 20346.0 
103.649132 241.0 
103.764374 110.0 
104.02597 2377.0 
104.061134 6478.0 
104.759132 240.0 
105.043686 18556.0 
105.068329 1770.0 
105.606705 80.0 
106.041054 3861.0 
106.071716 119.0 
106.819878 128.0 
106.94355 85.0 
107.014557 726.0 
107.04879 32449.0 
108.016441 204.0 
108.051758 2441.0 
108.585205 315.0 
109.024261 131.0 
109.064491 256.0 
110.263557 185.0 
111.042137 197.0 
112.601463 312.0 
113.67572 106.0 
114.046165 548.0 
115.053612 2656.0 
115.900002 135.0 
116.06221 671.0 
116.330757 196.0 
117.033791 5434.0 
117.070023 595.0 
118.040283 12619.0 
119.012032 496.0 
119.048653 22392.0 
119.836357 210.0 
119.881607 161.0 
120.020348 6281.0 
120.055489 4899.0 
120.749588 98.0 
120.874054 90.0 
121.024422 3274.0 
121.064644 9264.0 
121.729675 214.0 
122.034813 1008.0 
122.070999 1827.0 
122.138962 116.0 
122.29348 238.0 
122.411301 200.0 
122.658287 124.0 
123.042908 1064.0 
123.076622 131.0 
124.049461 664.0 
125.061676 589.0 
125.70871 411.0 
126.054695 137.0 
128.060974 123.0 
129.040894 1768.0 
129.993011 77.0 
130.041428 10885.0 
130.255692 184.0 
130.5952 246.0 
130.633377 144.0 
130.938004 204.0 
131.01355 2072.0 
131.048416 17345.0 
131.192764 73.0 
132.021011 7059.0 
132.056427 13309.0 
132.939651 242.0 
132.959671 356.0 
132.989883 200.0 
133.02774 24005.0 
133.064163 7572.0 
134.034622 7939.0 
134.071869 2448.0 
134.542664 197.0 
134.876114 102.0 
135.04364 39452.0 
135.079224 524.0 
135.250916 131.0 
136.01915 137.0 
136.047882 4510.0 
136.086227 157.0 
137.024994 187.0 
137.05806 1539.0 
137.734665 155.0 
137.784546 119.0 
138.02916 255.0 
138.06366 1282.0 
139.033829 644.0 
140.78157 108.0 
142.042664 429.0 
143.051498 137.0 
143.398148 145.0 
143.683792 192.0 
143.829391 177.0 
144.020477 626.0 
144.05954 379.0 
144.885254 249.0 
145.030655 6181.0 
145.063553 710.0 
145.504791 255.0 
145.851578 113.0 
146.035004 5821.0 
146.140152 191.0 
147.043442 56786.0 
147.52037 498.0 
147.882034 271.0 
147.957916 367.0 
148.013184 566.0 
148.05072 17291.0 
148.170212 120.0 
148.592941 243.0 
148.619965 148.0 
148.852524 132.0 
148.981491 152.0 
149.022766 1286.0 
149.05983 19258.0 
149.12558 75.0 
149.230042 98.0 
149.403412 111.0 
149.803268 115.0 
150.042358 498.0 
150.06781 4509.0 
150.324081 128.0 
150.974594 342.0 
151.037628 2379.0 
151.07309 2471.0 
151.931793 221.0 
152.045059 938.0 
152.08255 342.0 
152.60144 116.0 
152.775955 105.0 
153.050552 1205.0 
153.750488 139.0 
154.063171 1241.0 
155.063507 320.0 
156.022583 148.0 
157.036804 3338.0 
158.001907 197.0 
158.036224 1074.0 
158.885727 300.0 
159.007965 928.0 
159.044479 4927.0 
159.378098 98.0 
159.618393 168.0 
160.013519 502.0 
160.051392 14748.0 
161.023529 7345.0 
161.058594 15639.0 
162.030228 4922.0 
162.06723 39786.0 
162.12233 90.0 
162.477646 160.0 
162.510696 143.0 
162.964233 383.0 
163.038727 89238.0 
163.072784 6803.0 
163.111191 104.0 
163.15538 190.0 
163.227417 217.0 
163.608963 134.0 
163.734207 159.0 
164.042603 6087.0 
164.07901 547.0 
164.319778 382.0 
165.008423 115.0 
165.030106 314.0 
165.055466 2286.0 
165.088593 1860.0 
165.230179 105.0 
165.320099 179.0 
165.342926 273.0 
165.521072 141.0 
165.636566 110.0 
166.05867 162.0 
166.091202 243.0 
167.030441 134.0 
167.067947 2748.0 
168.074112 176.0 
169.086212 2014.0 
169.280823 119.0 
170.037766 148.0 
171.786774 115.0 
172.024353 167.0 
172.053162 314.0 
172.115219 108.0 
172.284943 94.0 
173.023544 2354.0 
173.060059 208.0 
173.273956 111.0 
173.966064 130.0 
174.030045 2502.0 
174.810013 145.0 
175.004883 540.0 
175.038773 22738.0 
175.366104 90.0 
175.586823 93.0 
176.012802 540.0 
176.045837 9714.0 
176.888535 236.0 
176.914383 152.0 
177.019592 1012.0 
177.054001 24145.0 
177.568649 76.0 
178.02684 526.0 
178.062378 35033.0 
178.175079 194.0 
178.989655 399.0 
179.035431 668.0 
179.066864 2971.0 
179.302948 154.0 
180.041885 537.0 
180.077606 1016.0 
180.373062 117.0 
180.499161 127.0 
181.053757 562.0 
182.058716 319.0 
184.033356 112.0 
187.033859 621.0 
188.047043 3406.0 
188.342651 275.0 
189.016266 168.0 
189.053909 4920.0 
189.514267 197.0 
189.71312 198.0 
189.841293 110.0 
189.890945 473.0 
189.93721 115.0 
190.062332 89635.0 
190.14006 147.0 
190.157364 160.0 
190.316345 94.0 
190.771011 127.0 
190.967331 471.0 
191.033356 63591.0 
191.069611 11843.0 
191.342697 177.0 
191.469894 100.0 
191.917419 160.0 
192.037033 4128.0 
192.074326 232.0 
192.179779 152.0 
192.45668 152.0 
193.048584 1928.0 
193.08577 57753.0 
193.160172 261.0 
193.302963 111.0 
193.543472 185.0 
194.056747 394.0 
194.088959 2639.0 
194.29718 252.0 
194.678162 173.0 
194.9776 150.0 
195.098175 707.0 
195.305695 96.0 
195.341278 128.0 
195.528809 105.0 
195.641785 111.0 
196.107956 194.0 
196.932693 129.0 
197.080124 1351.0 
198.078156 146.0 
199.43103 112.0 
201.245087 209.0 
203.034088 330.0 
203.065399 106.0 
203.948822 136.0 
204.046143 119.0 
204.22049 278.0 
205.048752 6157.0 
205.683716 154.0 
205.81813 219.0 
205.900742 161.0 
206.00061 161.0 
206.057159 56324.0 
206.506836 221.0 
207.060242 3338.0 
208.070694 2103.0 
208.736191 267.0 
209.043243 503.0 
209.071594 503.0 
219.726105 167.0 
219.832642 127.0 
220.271973 86.0 
220.463608 93.0 
220.560394 124.0 
221.080765 176997.0 
221.173767 197.0 
221.337997 117.0 
221.393814 143.0 
221.454193 138.0 
221.586395 217.0 
221.768951 87.0 
221.910645 226.0 
222.083939 10393.0 
222.189926 121.0 
223.130295 95.0 
223.1642 131.0 
223.253906 91.0 
223.406219 248.0 
223.681335 150.0 
223.851013 129.0 
224.065826 1968.0 
224.104385 127.0 
225.070999 140.0 
230.133957 98.0 
239.064056 220.0 
239.089096 558.0 
277.031525 107.0 
306.718811 159.0 
335.081055 229.0 
404.130615 177.0 
1210.13562 248.0 
1265.066162 225.0 
1289.768921 271.0 
1338.868042 247.0 
1365.742065 125.0 
1386.214355 360.0 
1403.111206 231.0 
1410.927124 195.0 
1453.825195 191.0 
1456.898193 145.0 
1462.551758 306.0 
1468.606323 159.0 
1537.372803 293.0 
1632.130127 139.0 
1642.488159 256.0 
1676.242554 140.0 
1706.973511 178.0 
1737.860596 134.0 
1738.906616 369.0 
1744.943237 272.0 
1755.959473 267.0 
1766.846802 258.0 
1768.73877 311.0 
1770.181763 281.0 
1771.312866 206.0 
1793.360596 221.0 
1808.236328 223.0 
1857.916992 223.0 
1862.489502 427.0 
1874.625122 274.0 
1876.073608 172.0 
1927.292114 340.0 
1950.89624 223.0 
1955.551025 265.0 
1958.254761 302.0 
1969.951416 204.0 
1990.892334 271.0 
1995.301147 347.0 
END IONS

BEGIN IONS
TITLE=Scan Number: 190
PEPMASS=256.11801
CHARGE=1+
MSLEVEL=2
FILENAME=A5_RA5_01_2658.mzXML
INSTRUMENT=ion trap
SCANS=190
SMILES=COC1=CC(=CC(OC)=C1OC)\C=C\C(O)=O
INCHIKEY=YTFVRYKNXDADBI-SNAWJCMRSA-N
78.043373 126.0 
79.050133 164.0 
81.073174 213.0 
92.057426 149.0 
95.010017 501.0 
102.046509 1002.0 
103.054832 601.0 
104.059822 612.0 
105.032799 192.0 
105.070747 216.0 
106.049271 158.0 
107.051933 438.0 
118.040237 201.0 
119.050613 1093.0 
120.050346 341.0 
129.035873 412.0 
131.04863 1366.0 
132.019348 167.0 
132.055801 273.0 
132.992538 149.0 
133.024353 637.0 
134.076584 227.0 
134.98349 172.0 
135.042862 1473.0 
144.0186 174.0 
147.045456 1699.0 
147.667892 155.0 
148.051575 375.0 
149.054123 432.0 
153.052094 91.0 
159.039001 99.0 
160.049637 188.0 
160.952179 167.0 
161.026276 314.0 
161.052567 153.0 
162.068146 1409.0 
163.039597 1691.0 
164.044907 612.0 
165.047684 351.0 
171.003021 328.0 
174.031662 189.0 
175.039841 486.0 
176.041336 297.0 
177.051529 112.0 
178.058762 882.0 
179.022354 132.0 
181.047165 143.0 
187.043243 178.0 
190.061432 1202.0 
191.033585 2467.0 
193.08934 1734.0 
194.091705 317.0 
205.041016 134.0 
206.057251 1345.0 
209.043243 206.0 
212.993607 290.0 
214.997971 151.0 
217.040787 126.0 
221.080917 10911.0 
222.084885 987.0 
236.029907 125.0 
251.063461 244.0 
287.079681 119.0 
313.050171 294.0 
314.065887 259.0 
END IONS

BEGIN IONS
TITLE=Scan Number: 191
PEPMASS=245.08099
CHARGE=1+
MSLEVEL=2
FILENAME=A5_RA5_01_2658.mzXML
INSTRUMENT=ion trap
SCANS=191
SMILES=CC(C)(O)C1=CC2=C3OC(=O)C=CC3=CC=C2O1
INCHIKEY=KDJVHSVOXOZBDR-UHFFFAOYSA-N
75.882339 301.0 
75.916336 183.0 
77.03907 807.0 
80.035812 134.0 
81.035645 143.0 
81.224281 131.0 
82.006119 136.0 
82.589317 99.0 
82.786903 229.0 
85.023041 173.0 
90.041504 200.0 
90.063896 317.0 
91.02356 183.0 
91.053642 2156.0 
91.671959 152.0 
92.05687 148.0 
92.287712 175.0 
95.049667 971.0 
96.056221 242.0 
97.375343 127.0 
102.048119 1489.0 
102.671501 219.0 
103.053284 4672.0 
104.058189 278.0 
105.044434 2304.0 
105.070305 261.0 
106.043213 424.0 
107.048233 161.0 
108.085716 280.0 
114.04541 320.0 
115.053406 5623.0 
115.799431 302.0 
116.055 285.0 
117.031807 111.0 
117.068573 744.0 
117.685715 116.0 
119.04493 393.0 
119.084373 157.0 
119.215866 139.0 
119.801506 276.0 
120.053581 147.0 
121.061111 349.0 
123.04351 135.0 
125.27565 196.0 
126.115158 213.0 
127.054794 147.0 
128.061188 5688.0 
128.359589 209.0 
129.069992 1523.0 
129.89946 380.0 
130.688705 223.0 
130.748322 103.0 
130.926361 83.0 
131.048798 76314.0 
131.171158 110.0 
131.237259 127.0 
131.273315 163.0 
131.531754 280.0 
132.015427 187.0 
132.052948 4720.0 
133.025116 127.0 
133.121399 109.0 
134.034286 480.0 
135.042511 231.0 
136.315811 202.0 
138.12883 111.0 
140.061508 134.0 
140.080276 281.0 
140.652924 121.0 
141.06871 742.0 
141.751709 278.0 
142.07309 279.0 
143.001236 276.0 
143.049576 5369.0 
143.084885 1555.0 
144.055832 1223.0 
145.027115 347.0 
145.063629 1401.0 
145.096588 279.0 
145.498779 98.0 
146.029007 281.0 
146.072464 215.0 
146.984253 79.0 
147.042953 2097.0 
147.078781 616.0 
147.418839 80.0 
147.520782 124.0 
148.049438 147.0 
149.065201 198.0 
151.037384 217.0 
152.051865 315.0 
152.934601 181.0 
153.069946 133.0 
154.074493 224.0 
155.002304 137.0 
155.058945 1371.0 
155.746796 76.0 
156.05423 1028.0 
157.064636 1556.0 
158.039368 954.0 
158.071579 969.0 
159.043854 12653.0 
160.049377 3375.0 
160.086517 284.0 
161.094864 351.0 
163.041367 286.0 
165.057205 175.0 
165.21843 162.0 
168.058807 175.0 
169.030579 130.0 
169.066666 233.0 
169.790131 108.0 
170.066299 88.0 
171.046417 1352.0 
171.081131 1597.0 
172.04631 159.0 
172.086685 134.0 
173.062256 520.0 
173.094894 166.0 
174.067093 1398.0 
175.03775 6107.0 
175.071793 839.0 
176.045715 934.0 
178.368607 83.0 
179.033142 185.0 
180.868088 325.0 
181.064163 147.0 
183.048599 140.0 
183.081161 101.0 
183.989471 206.0 
184.056076 1830.0 
185.028885 190.0 
185.058319 2298.0 
186.016464 205.0 
186.067551 1381.0 
187.038345 76343.0 
187.102509 112.0 
187.464508 184.0 
188.043518 5608.0 
188.082748 171.0 
189.023056 142.0 
189.056335 153.0 
189.090195 412.0 
189.298309 83.0 
189.60347 115.0 
189.802277 168.0 
190.624771 127.0 
193.047577 158.0 
195.965881 115.0 
196.09169 96.0 
197.611786 107.0 
199.039017 120.0 
199.07605 1649.0 
200.039902 138.0 
200.078339 126.0 
201.05426 1500.0 
201.08989 1883.0 
202.008423 158.0 
202.062317 2487.0 
202.094498 439.0 
203.067261 1014.0 
204.07489 168.0 
204.826523 85.0 
211.03714 179.0 
212.049149 521.0 
213.053818 5808.0 
214.051437 512.0 
214.123886 94.0 
214.416931 201.0 
214.98349 249.0 
215.03299 18549.0 
215.369781 82.0 
215.498428 89.0 
215.916367 328.0 
216.03624 2103.0 
217.069641 190.0 
217.195694 92.0 
217.881836 448.0 
226.994125 201.0 
227.069443 3482.0 
227.152603 74.0 
227.707642 173.0 
227.81337 126.0 
228.076614 1504.0 
228.58931 87.0 
229.001434 95.0 
229.049759 9258.0 
230.055206 18069.0 
230.289505 99.0 
231.063873 2584.0 
233.04805 231.0 
243.996719 145.0 
244.139908 224.0 
244.200104 138.0 
244.265167 244.0 
244.621521 81.0 
244.728333 179.0 
244.853851 110.0 
244.89415 146.0 
244.961792 265.0 
245.080231 200169.0 
245.271225 288.0 
245.395462 342.0 
245.590775 122.0 
245.911057 132.0 
245.973312 117.0 
246.083923 13106.0 
246.55159 295.0 
247.544357 127.0 
247.715973 159.0 
247.790237 203.0 
247.807648 208.0 
249.512482 174.0 
263.088806 85.0 
504.528381 111.0 
1405.097534 73.0 
1751.942139 193.0 
1911.242065 146.0 
1915.830444 316.0 
1961.734863 304.0 
2000.192993 153.0 
END IONS

BEGIN IONS
TITLE=Scan Number: 194
PEPMASS=265.15799
CHARGE=1+
MSLEVEL=2
FILENAME=A5_RA5_01_2658.mzXML
INSTRUMENT=ion trap
SCANS=194
SMILES=O[C@@H](CCC1=CC=CC=C1)CC(=O)CCC2=CC=CC=C2
INCHIKEY=CCNKTMMNRPJQHV-SFHVURJKSA-N
79.019798 261.0 
79.052391 425.0 
83.049042 229.0 
89.107567 203.0 
90.911331 192.0 
91.054352 35312.0 
92.058441 2077.0 
92.209961 159.0 
93.888451 104.0 
95.047714 221.0 
96.310677 88.0 
97.378471 153.0 
103.057251 148.0 
104.86647 81.0 
104.976059 133.0 
105.049103 384.0 
105.06974 2072.0 
106.074158 195.0 
107.05368 219.0 
115.051842 1172.0 
116.058182 479.0 
117.070625 7119.0 
118.074364 317.0 
128.06041 1105.0 
129.071548 583.0 
131.086365 385.0 
133.080566 228.0 
133.105988 264.0 
141.067062 371.0 
143.085876 4010.0 
155.062988 424.0 
155.086243 361.0 
161.097214 831.0 
169.093079 194.0 
180.092438 155.0 
181.105453 157.0 
191.086105 126.0 
206.106766 171.0 
232.992661 183.0 
265.158051 161.0 
1628.432373 388.0 
1848.680542 242.0 
1857.874268 163.0 
END IONS

BEGIN IONS
TITLE=Scan Number: 195
PEPMASS=303.159
CHARGE=1+
MSLEVEL=2
FILENAME=A5_RA5_01_2658.mzXML
INSTRUMENT=ion trap
SCANS=195
SMILES=CC(CC1=CC(O)=C(O)C=C1)C(C)CC2=CC(O)=C(O)C=C2
INCHIKEY=HCZKYJDFEPMADG-UHFFFAOYSA-N
77.036346 1637.0 
78.198967 205.0 
79.028374 204.0 
83.048546 162.0 
91.053818 3006.0 
93.031815 126.0 
93.060547 170.0 
95.048195 3046.0 
96.052673 262.0 
101.094292 200.0 
102.856064 107.0 
103.054253 180.0 
105.043144 5338.0 
105.069633 2694.0 
106.039307 312.0 
107.049095 438.0 
108.051773 105.0 
115.054451 375.0 
117.184647 284.0 
118.139648 180.0 
119.050323 1213.0 
119.086952 289.0 
122.188011 133.0 
122.844521 140.0 
122.883766 299.0 
122.964699 220.0 
122.993279 359.0 
123.043922 91035.0 
123.097198 127.0 
123.141106 118.0 
123.771767 132.0 
124.047707 4780.0 
124.090126 205.0 
124.671944 85.0 
124.845406 101.0 
125.096115 88.0 
128.059814 124.0 
131.046707 430.0 
132.064148 412.0 
132.092239 162.0 
133.06543 4763.0 
133.487656 185.0 
134.067886 648.0 
134.766113 95.0 
137.020798 147.0 
137.060043 3012.0 
138.060959 306.0 
138.089401 99.0 
142.086273 239.0 
143.052734 236.0 
143.079895 135.0 
145.068985 148.0 
145.101746 340.0 
145.27626 156.0 
146.073288 503.0 
147.04187 167.0 
147.080399 167.0 
147.117188 1213.0 
147.545303 143.0 
151.073929 316.0 
156.025711 201.0 
156.855072 104.0 
157.102066 480.0 
159.078415 171.0 
165.004807 388.0 
174.763596 200.0 
175.054825 147.0 
175.07695 407.0 
175.112152 4932.0 
175.31813 220.0 
175.368912 89.0 
175.660858 97.0 
176.118927 626.0 
176.23259 183.0 
177.487747 112.0 
177.567062 122.0 
193.123291 3921.0 
194.126022 100.0 
195.317108 80.0 
225.088074 96.0 
303.06665 105.0 
1154.666016 134.0 
1440.69043 251.0 
1485.69165 167.0 
1872.977173 112.0 
1880.70752 100.0 
1927.96582 243.0 
END IONS

BEGIN IONS
TITLE=Scan Number: 197
PEPMASS=313.07001
CHARGE=1+
MSLEVEL=2
FILENAME=A5_RA5_01_2658.mzXML
INSTRUMENT=ion trap
SCANS=197
SMILES=OC(=O)C1=CC2=CC(O)=C(O)C=C2C(=C1)C3=CC=C(O)C(O)=C3
INCHIKEY=ZSKDVJYWOHBGNI-UHFFFAOYSA-N
81.233383 147.0 
88.199631 103.0 
90.045746 202.0 
90.96608 200.0 
103.05278 354.0 
105.039886 153.0 
108.593056 322.0 
109.028297 380.0 
110.714386 260.0 
111.82003 150.0 
114.046059 214.0 
127.639183 297.0 
130.072098 115.0 
131.050995 1288.0 
132.037521 151.0 
132.055237 321.0 
139.055298 172.0 
142.042587 164.0 
143.084335 125.0 
143.758667 263.0 
147.078018 179.0 
150.043533 256.0 
152.062805 2363.0 
153.069107 808.0 
155.045914 403.0 
155.083191 208.0 
157.020309 184.0 
157.063141 157.0 
158.967911 228.0 
159.028336 348.0 
159.047562 550.0 
159.420532 146.0 
160.009918 442.0 
160.05188 6932.0 
161.058136 497.0 
164.067123 328.0 
165.07048 3173.0 
165.405487 190.0 
166.07756 685.0 
167.051224 362.0 
167.086395 2325.0 
168.046906 175.0 
168.089142 313.0 
169.064758 1458.0 
169.503265 279.0 
169.8358 340.0 
170.061127 131.0 
171.077606 150.0 
173.061234 430.0 
175.051651 361.0 
176.061249 5073.0 
176.993561 250.0 
177.06871 10005.0 
177.461868 95.0 
178.071869 1097.0 
179.061478 949.0 
179.336075 122.0 
180.056473 495.0 
180.090347 130.0 
180.253159 96.0 
181.064194 4236.0 
182.068527 905.0 
183.081207 95.0 
185.061798 100.0 
185.669464 143.0 
187.050079 152.0 
190.603302 281.0 
191.048553 115.0 
192.056671 403.0 
193.066803 866.0 
194.071487 1263.0 
195.05632 132.0 
195.082718 2107.0 
195.285324 169.0 
196.082153 352.0 
197.03183 223.0 
197.059174 1596.0 
197.56543 95.0 
198.0625 972.0 
199.071243 714.0 
202.093521 355.0 
203.06337 342.0 
204.047424 216.0 
205.021103 312.0 
205.06369 9907.0 
206.070831 2430.0 
207.071732 197.0 
208.045929 213.0 
209.062546 360.0 
210.601105 122.0 
211.041275 189.0 
211.073181 605.0 
215.887085 106.0 
220.054535 152.0 
220.247665 261.0 
221.021988 581.0 
221.059036 12091.0 
221.162582 284.0 
222.065125 2632.0 
222.496719 206.0 
222.552414 88.0 
222.863297 168.0 
223.075104 32914.0 
223.238144 82.0 
223.452438 107.0 
223.488892 91.0 
223.681122 117.0 
223.869858 109.0 
223.961639 101.0 
224.082184 3092.0 
225.061508 84.0 
225.888077 184.0 
226.060028 250.0 
233.06044 4615.0 
234.068436 2155.0 
235.072098 409.0 
236.804031 235.0 
237.050247 159.0 
239.07312 673.0 
241.085434 101.0 
248.985291 321.0 
249.056305 5775.0 
250.060043 1956.0 
251.023468 646.0 
251.070724 21370.0 
251.618729 179.0 
252.073029 3200.0 
257.479279 226.0 
259.039154 325.0 
260.617828 285.0 
261.074249 172.0 
267.063019 922.0 
268.075989 546.0 
269.080658 8699.0 
270.08371 1018.0 
271.669647 92.0 
276.990356 145.0 
277.04718 2595.0 
278.053345 1643.0 
295.060822 9963.0 
296.064026 1332.0 
313.067657 356.0 
1493.863403 122.0 
1854.583008 235.0 
1910.322876 217.0 
1945.875488 242.0 
END IONS

BEGIN IONS
TITLE=Scan Number: 199
PEPMASS=277.10699
CHARGE=1+
MSLEVEL=2
FILENAME=A2_GA2_01_2900.mzXML
INSTRUMENT=ion trap
SCANS=199
SMILES=COC1=CC(=O)O[C@@H](CCC2=CC3=C(OCO3)C=C2)C1
INCHIKEY=RSIWXFIBHXYNFM-NSHDSACASA-N
74.752365 183.0 
76.534058 232.0 
77.031807 196.0 
79.055168 765.0 
94.040611 241.0 
95.048119 406.0 
96.055267 266.0 
98.789749 95.0 
102.049095 282.0 
103.054588 10140.0 
104.061195 381.0 
105.03595 3890.0 
105.559784 92.0 
106.049644 187.0 
106.612427 332.0 
109.06646 295.0 
111.041901 154.0 
115.050148 577.0 
115.350342 184.0 
118.039757 183.0 
122.032112 246.0 
124.050156 113.0 
125.057533 138.0 
128.06221 406.0 
131.048553 11048.0 
131.11116 155.0 
132.053329 424.0 
132.792938 73.0 
135.043472 34982.0 
135.246017 125.0 
135.289917 75.0 
136.047226 1645.0 
136.962189 107.0 
137.059372 1091.0 
137.356293 83.0 
141.065979 118.0 
142.078262 211.0 
144.088272 156.0 
145.062698 119.0 
147.036118 194.0 
149.022339 311.0 
152.036636 200.0 
155.067871 279.0 
159.027405 121.0 
159.045349 123.0 
159.062256 142.0 
160.048782 481.0 
160.359467 91.0 
160.69928 199.0 
161.023636 150.0 
161.059662 7566.0 
162.062332 1229.0 
162.289032 64.0 
163.337936 114.0 
168.058807 316.0 
169.065033 753.0 
170.063034 177.0 
172.05159 135.0 
173.062347 239.0 
175.042145 162.0 
177.048065 188.0 
180.057159 68.0 
185.05127 202.0 
187.039551 145.0 
187.076553 439.0 
197.061584 217.0 
199.075668 851.0 
203.069794 323.0 
207.057571 170.0 
214.061035 408.0 
215.06929 325.0 
217.052124 417.0 
219.099182 111.0 
227.069916 913.0 
231.062088 113.0 
231.099609 1105.0 
243.059631 100.0 
244.078354 159.0 
245.084869 516.0 
259.096466 575.0 
277.10437 510.0 
278.103485 128.0 
1867.36853 173.0 
END IONS

BEGIN IONS
TITLE=Scan Number: 200
PEPMASS=294.134
CHARGE=1+
MSLEVEL=2
FILENAME=A2_GA2_01_2900.mzXML
INSTRUMENT=ion trap
SCANS=200
SMILES=COC1=CC(=O)O[C@@H](CCC2=CC3=C(OCO3)C=C2)C1
INCHIKEY=RSIWXFIBHXYNFM-NSHDSACASA-N
73.946617 331.0 
76.995552 158.0 
77.039787 1781.0 
77.203835 193.0 
79.011986 144.0 
79.054649 3634.0 
80.056961 617.0 
81.034569 139.0 
81.298225 86.0 
81.399559 192.0 
83.050331 319.0 
84.43013 109.0 
90.20887 203.0 
92.338875 281.0 
94.039009 884.0 
94.287117 181.0 
95.050575 1910.0 
96.055183 666.0 
96.700958 115.0 
103.053719 31620.0 
103.149948 109.0 
103.316498 116.0 
104.03714 404.0 
104.057495 1561.0 
104.707748 173.0 
104.809814 79.0 
104.92849 159.0 
104.984398 261.0 
105.035675 11482.0 
105.938812 312.0 
106.039085 1254.0 
106.678223 97.0 
107.044655 159.0 
108.606712 249.0 
109.064888 3746.0 
110.069214 201.0 
110.965988 213.0 
111.046524 306.0 
111.079231 743.0 
112.529022 232.0 
115.021851 252.0 
115.054527 972.0 
117.031647 190.0 
117.070084 291.0 
119.046974 273.0 
120.018494 280.0 
120.290932 173.0 
120.907936 159.0 
121.056702 335.0 
121.418419 92.0 
123.043945 343.0 
124.048157 270.0 
127.066277 144.0 
128.062759 660.0 
129.422455 343.0 
130.042328 120.0 
130.864685 221.0 
131.048492 61399.0 
131.084702 182.0 
131.282837 153.0 
132.052017 5327.0 
132.732193 106.0 
134.012817 136.0 
134.075134 164.0 
134.121857 113.0 
134.371414 204.0 
134.595764 327.0 
134.793777 252.0 
134.954285 464.0 
134.977005 139.0 
135.043472 161874.0 
135.087723 280.0 
135.269455 91.0 
135.29274 105.0 
135.583832 187.0 
135.65036 163.0 
135.753662 140.0 
135.84581 128.0 
136.011978 325.0 
136.047882 11789.0 
137.058701 2784.0 
137.160416 361.0 
137.202911 122.0 
139.056793 187.0 
141.069153 3918.0 
142.075729 279.0 
142.250717 106.0 
143.049393 1646.0 
143.086655 562.0 
143.340637 99.0 
145.062943 608.0 
145.11618 132.0 
146.068268 102.0 
146.10376 173.0 
147.04454 192.0 
149.022644 1071.0 
149.063919 546.0 
149.37886 110.0 
151.037186 87.0 
154.271912 309.0 
155.024033 138.0 
155.070068 2690.0 
156.07132 187.0 
156.308792 189.0 
157.064575 299.0 
157.352921 178.0 
158.071198 161.0 
159.044632 738.0 
159.080215 545.0 
160.195694 133.0 
160.53688 107.0 
160.58638 122.0 
160.86261 162.0 
160.893356 255.0 
160.968903 105.0 
160.998642 377.0 
161.059418 68027.0 
161.164124 181.0 
161.350098 117.0 
161.570908 117.0 
161.659164 112.0 
162.061813 2968.0 
163.111282 96.0 
163.382828 114.0 
168.055832 306.0 
169.064102 3093.0 
169.85849 70.0 
170.06694 460.0 
171.034714 146.0 
171.078278 656.0 
172.052673 973.0 
173.058838 1286.0 
174.060776 122.0 
175.041779 394.0 
175.078568 104.0 
177.05336 630.0 
181.071472 209.0 
184.088455 116.0 
185.06105 1450.0 
185.256271 98.0 
186.063187 240.0 
187.03688 280.0 
187.077072 499.0 
188.043152 511.0 
188.071426 89.0 
189.053635 103.0 
189.088654 99.0 
197.059235 606.0 
198.058548 175.0 
198.483078 85.0 
199.035767 171.0 
199.073395 3404.0 
200.040436 341.0 
200.077988 598.0 
201.053894 410.0 
201.090454 1743.0 
202.060043 258.0 
202.094666 127.0 
203.070679 2388.0 
204.076111 541.0 
205.665634 132.0 
211.047165 151.0 
212.069122 247.0 
213.056076 153.0 
214.06633 161.0 
215.068237 1018.0 
216.07872 637.0 
217.046722 3406.0 
217.085342 1579.0 
218.048843 360.0 
219.790466 120.0 
226.303375 92.0 
227.067642 5768.0 
228.073456 1675.0 
229.085007 515.0 
229.787033 138.0 
231.099045 5147.0 
231.442261 118.0 
232.105209 242.0 
241.085068 811.0 
242.079865 227.0 
244.062958 107.0 
245.079285 7800.0 
246.079681 1638.0 
247.095612 140.0 
259.094177 5271.0 
260.071442 154.0 
260.099915 956.0 
264.822479 96.0 
277.106567 27806.0 
277.703735 104.0 
277.949371 88.0 
278.028748 154.0 
278.10672 1919.0 
279.106476 197.0 
279.967041 88.0 
420.078003 183.0 
482.962006 184.0 
1245.306152 175.0 
1328.424927 184.0 
1400.703247 341.0 
1427.366821 104.0 
1506.618408 104.0 
1590.758911 468.0 
1655.680176 347.0 
1676.646362 129.0 
1682.376221 111.0 
1794.865723 343.0 
1952.680908 312.0 
END IONS

BEGIN IONS
TITLE=Scan Number: 204
PEPMASS=339.15799
CHARGE=1+
MSLEVEL=2
FILENAME=A2_GA2_01_2900.mzXML
INSTRUMENT=ion trap
SCANS=204
SMILES=COC1=CC(=O)C(CC=C)=CC1(OC)C(C)CC2=CC=C3OCOC3=C2
INCHIKEY=SMOHLDSEWHACKE-UHFFFAOYSA-N
79.056793 438.0 
89.035568 92.0 
91.054771 5619.0 
92.059227 394.0 
95.040733 190.0 
105.043839 1042.0 
105.068359 361.0 
105.842255 225.0 
106.041229 189.0 
107.027832 154.0 
107.051598 811.0 
108.059326 189.0 
108.795776 196.0 
116.054619 161.0 
116.814018 155.0 
117.068832 192.0 
119.049446 8617.0 
119.087654 192.0 
120.053169 504.0 
121.06411 168.0 
124.026085 140.0 
128.062897 1140.0 
129.072205 219.0 
131.08403 510.0 
131.574142 91.0 
132.091431 189.0 
133.065292 1242.0 
133.103302 151.0 
134.076279 85.0 
135.043655 12975.0 
135.612991 121.0 
136.046768 1347.0 
137.061584 1303.0 
137.142654 93.0 
138.928864 142.0 
141.070816 513.0 
142.076736 474.0 
143.055359 270.0 
143.083832 2355.0 
144.057297 98.0 
144.095367 270.0 
145.063614 327.0 
145.207108 226.0 
146.074524 195.0 
149.014709 276.0 
149.059418 16141.0 
150.065964 1656.0 
151.075867 4100.0 
152.073685 282.0 
154.894409 257.0 
155.060547 485.0 
155.09166 355.0 
157.06456 271.0 
157.098633 242.0 
158.070938 543.0 
159.079193 3012.0 
159.694412 293.0 
161.098709 462.0 
163.075333 2235.0 
165.064224 376.0 
165.08963 2915.0 
166.10112 252.0 
167.087982 158.0 
169.075272 117.0 
171.077744 1134.0 
172.086761 671.0 
173.060989 168.0 
175.061646 149.0 
177.076691 236.0 
179.109451 329.0 
181.063293 123.0 
182.065353 375.0 
185.061981 198.0 
185.092239 179.0 
186.073318 251.0 
186.103912 1677.0 
186.911636 217.0 
187.075302 3192.0 
187.139053 104.0 
188.076965 237.0 
188.119186 175.0 
188.165039 154.0 
189.042038 382.0 
189.092697 441.0 
190.111649 234.0 
191.091141 293.0 
195.081375 432.0 
200.941742 159.0 
201.09024 1236.0 
202.099564 8451.0 
202.415848 182.0 
203.104172 988.0 
205.047211 201.0 
217.058136 156.0 
217.121948 8068.0 
217.527557 85.0 
218.070465 188.0 
218.12413 1106.0 
219.808014 109.0 
222.066559 172.0 
223.0802 117.0 
225.087463 249.0 
226.043076 162.0 
226.10112 127.0 
237.078094 153.0 
239.103271 156.0 
248.076736 138.0 
249.078979 208.0 
251.07811 380.0 
252.070602 149.0 
253.04689 252.0 
253.08493 275.0 
254.09906 234.0 
266.090027 762.0 
267.052368 152.0 
267.092621 544.0 
278.134003 191.0 
279.1073 182.0 
280.049225 132.0 
280.103821 132.0 
281.077393 358.0 
282.087311 375.0 
293.116699 200.0 
294.110901 124.0 
295.103363 370.0 
296.10788 660.0 
297.108551 364.0 
308.139069 165.0 
310.121033 650.0 
317.152557 228.0 
339.160431 2327.0 
340.169708 134.0 
441.890656 147.0 
1468.038574 180.0 
1542.529053 186.0 
1549.498657 164.0 
1930.233276 200.0 
END IONS

BEGIN IONS
TITLE=Scan Number: 205
PEPMASS=374.19601
CHARGE=1+
MSLEVEL=2
FILENAME=A2_GA2_01_2900.mzXML
INSTRUMENT=ion trap
SCANS=205
SMILES=COC1=CC(=O)C(CC=C)=CC1(OC)C(C)CC2=CC=C3OCOC3=C2
INCHIKEY=SMOHLDSEWHACKE-UHFFFAOYSA-N
79.056152 418.0 
90.044052 163.0 
91.056587 535.0 
93.03421 1623.0 
93.070213 508.0 
94.032768 194.0 
95.048164 395.0 
105.045235 168.0 
105.069527 1480.0 
107.04805 366.0 
108.056076 587.0 
111.046143 1292.0 
113.050491 156.0 
117.067589 989.0 
118.040665 95.0 
119.048729 1530.0 
119.085312 320.0 
121.06591 753.0 
122.034981 213.0 
123.043518 1587.0 
123.078568 120.0 
124.052971 2151.0 
125.114082 211.0 
128.067108 227.0 
130.075409 336.0 
131.048965 1212.0 
133.062943 974.0 
134.072937 330.0 
135.043106 7646.0 
135.083069 343.0 
135.573395 112.0 
136.050751 1034.0 
137.03891 129.0 
137.059647 414.0 
137.100372 396.0 
138.068787 543.0 
138.564713 125.0 
139.049728 173.0 
139.074081 4419.0 
140.080231 171.0 
142.074219 143.0 
143.086716 523.0 
144.087799 476.0 
145.06543 588.0 
147.078903 820.0 
148.080841 630.0 
149.025589 999.0 
149.060242 3492.0 
150.026443 149.0 
150.062958 730.0 
150.565796 222.0 
150.971405 130.0 
151.039108 4741.0 
151.07518 8734.0 
152.04628 711.0 
152.08223 1904.0 
154.062897 227.0 
155.062637 102.0 
157.103439 180.0 
159.085205 258.0 
160.089676 111.0 
161.058945 130.0 
161.096985 104.0 
163.075546 2168.0 
164.082703 1279.0 
165.017365 239.0 
165.054138 763.0 
165.088928 2765.0 
166.09407 219.0 
166.1996 83.0 
167.070923 2963.0 
169.443802 137.0 
171.078033 945.0 
172.083862 593.0 
173.061935 138.0 
174.097473 161.0 
175.077072 103.0 
177.090454 210.0 
178.39566 198.0 
179.069763 852.0 
179.107574 3406.0 
180.084167 145.0 
180.110016 450.0 
185.095093 186.0 
186.055817 221.0 
186.107666 213.0 
187.077133 323.0 
188.082657 274.0 
189.093109 170.0 
191.100189 169.0 
195.099899 1923.0 
200.680298 171.0 
201.091293 1687.0 
201.996414 225.0 
202.093994 1269.0 
203.101593 571.0 
204.08754 122.0 
207.141861 105.0 
217.122147 2963.0 
219.074234 151.0 
219.100876 1695.0 
235.131149 702.0 
236.134048 295.0 
251.102982 176.0 
263.109131 197.0 
271.095123 454.0 
277.085693 134.0 
278.136749 237.0 
292.109161 131.0 
293.115173 348.0 
294.120819 152.0 
296.097687 234.0 
297.100616 158.0 
309.151733 103.0 
339.156494 571.0 
340.144653 347.0 
357.167358 453.0 
1752.967773 368.0 
END IONS

BEGIN IONS
TITLE=Scan Number: 209
PEPMASS=595.16498
CHARGE=1+
MSLEVEL=2
FILENAME=A2_GA2_01_2900.mzXML
INSTRUMENT=ion trap
SCANS=209
SMILES=OCC1OC(C(O)C(O)C1O)C2=C(O)C(C3OC(CO)C(O)C(O)C3O)=C4OC(=CC(=O)C4=C2O)C5=CC=C(O)C=C5
INCHIKEY=FIAAVMJLAGNUKW-UHFFFAOYSA-N
74.181801 246.0 
81.034119 213.0 
85.029037 421.0 
90.502861 170.0 
91.040077 91.0 
91.935471 115.0 
95.053192 265.0 
97.029144 466.0 
103.039696 740.0 
107.994957 173.0 
109.029076 517.0 
110.108429 179.0 
113.119377 96.0 
119.048683 523.0 
120.048439 151.0 
121.027542 4343.0 
121.81926 98.0 
122.035019 205.0 
123.043533 255.0 
127.042923 152.0 
128.067444 194.0 
129.034241 165.0 
130.851044 166.0 
135.039627 133.0 
137.028534 233.0 
142.340988 158.0 
145.026398 648.0 
146.031906 152.0 
147.040024 130.0 
153.05571 177.0 
161.055069 158.0 
161.364166 184.0 
163.040924 659.0 
164.46756 167.0 
165.022888 426.0 
165.738403 249.0 
167.562363 202.0 
171.052048 299.0 
172.050323 169.0 
173.004456 115.0 
175.554504 283.0 
177.017136 1218.0 
177.0569 131.0 
179.035095 685.0 
179.963959 204.0 
183.031586 131.0 
185.059555 155.0 
186.03125 320.0 
187.030182 135.0 
189.017456 1104.0 
190.022446 167.0 
190.355591 298.0 
191.037979 1198.0 
192.046677 134.0 
195.029816 363.0 
197.043076 142.0 
199.048355 292.0 
200.045258 135.0 
201.015381 465.0 
201.053116 127.0 
201.12619 168.0 
202.024399 150.0 
202.062424 337.0 
203.034012 1022.0 
203.199799 217.0 
203.436768 177.0 
204.209991 135.0 
205.057587 199.0 
207.031754 983.0 
208.083496 209.0 
209.039017 295.0 
211.225937 302.0 
212.047379 129.0 
213.061081 117.0 
213.831223 182.0 
214.623825 184.0 
215.033768 424.0 
215.217651 178.0 
217.013321 121.0 
217.047897 780.0 
218.047775 190.0 
219.028076 2394.0 
220.024643 134.0 
221.048996 117.0 
221.095673 118.0 
223.059326 274.0 
225.037231 404.0 
225.46048 180.0 
226.063492 325.0 
226.990463 146.0 
227.029434 287.0 
227.936325 293.0 
229.052383 190.0 
229.429428 152.0 
230.055954 146.0 
231.026917 714.0 
231.078995 122.0 
233.044067 369.0 
235.339401 242.0 
236.101089 342.0 
237.044479 460.0 
237.77829 230.0 
238.135605 140.0 
239.029266 296.0 
239.550262 108.0 
240.02681 189.0 
241.051224 398.0 
242.717194 187.0 
243.065735 139.0 
243.277405 171.0 
244.272736 187.0 
245.038422 285.0 
247.069595 464.0 
248.065582 192.0 
249.034821 139.0 
253.052048 311.0 
253.083923 290.0 
253.132904 78.0 
254.983887 139.0 
255.032806 723.0 
256.024567 288.0 
256.072815 296.0 
257.02475 157.0 
257.049805 492.0 
258.047058 184.0 
259.066895 367.0 
259.122955 190.0 
261.03775 389.0 
263.058563 135.0 
264.763489 227.0 
267.022339 233.0 
267.064392 480.0 
268.075195 176.0 
269.019989 148.0 
269.07489 138.0 
270.014343 212.0 
270.057159 434.0 
270.272491 318.0 
270.32605 244.0 
271.402893 201.0 
272.069611 108.0 
273.006897 232.0 
275.047699 109.0 
277.081573 380.0 
278.066986 233.0 
279.06665 454.0 
279.102844 150.0 
280.069977 242.0 
281.030457 131.0 
281.079132 1190.0 
282.074371 619.0 
282.749786 94.0 
282.963898 117.0 
283.013977 356.0 
283.058899 3615.0 
284.07312 922.0 
285.040802 1648.0 
286.036774 404.0 
287.056702 133.0 
290.096588 182.0 
290.192566 269.0 
291.052734 489.0 
291.111053 135.0 
291.153809 218.0 
291.954224 98.0 
292.059296 215.0 
293.07431 713.0 
293.399231 176.0 
293.985779 377.0 
294.012146 580.0 
294.053589 6627.0 
294.373932 320.0 
294.97287 316.0 
295.059753 31737.0 
295.336884 87.0 
296.064697 6487.0 
297.072845 2446.0 
298.0802 431.0 
299.053375 137.0 
299.090057 343.0 
299.336182 97.0 
299.362701 247.0 
299.423798 95.0 
300.460114 163.0 
300.743317 124.0 
300.79129 204.0 
301.080566 189.0 
301.506409 233.0 
302.079193 156.0 
303.053802 813.0 
303.916382 143.0 
304.060303 113.0 
305.03363 82.0 
305.079529 236.0 
306.065063 257.0 
306.290131 88.0 
306.915588 176.0 
307.010162 639.0 
307.060425 19491.0 
307.833405 186.0 
307.977509 103.0 
308.068909 5659.0 
308.205597 102.0 
309.07547 6964.0 
309.821533 68.0 
310.076874 1318.0 
310.846863 76.0 
311.087921 576.0 
312.066193 486.0 
312.950745 141.0 
313.072418 3354.0 
314.071045 987.0 
315.064148 195.0 
315.157257 146.0 
316.054504 180.0 
316.258392 87.0 
317.085693 337.0 
318.100098 320.0 
318.13562 160.0 
318.496948 220.0 
319.063171 1490.0 
319.214264 101.0 
320.030548 363.0 
320.067505 1360.0 
320.623352 269.0 
320.969238 255.0 
321.076202 7810.0 
321.261627 283.0 
321.433075 100.0 
321.576782 261.0 
322.080902 5338.0 
323.054199 2046.0 
323.088348 2260.0 
323.652252 140.0 
324.046997 172.0 
324.079803 308.0 
324.735687 270.0 
324.967621 539.0 
325.071533 53543.0 
325.168976 202.0 
325.602295 172.0 
325.674957 120.0 
325.938599 141.0 
326.075287 8933.0 
326.279022 148.0 
327.074432 729.0 
327.278809 147.0 
327.427887 97.0 
328.072449 136.0 
329.080566 469.0 
329.754791 176.0 
330.081421 139.0 
331.075775 190.0 
332.067993 222.0 
332.432281 106.0 
333.07666 1507.0 
333.416595 232.0 
333.95993 172.0 
334.080719 654.0 
334.552429 179.0 
335.055145 1222.0 
335.089783 4979.0 
335.825104 82.0 
335.884674 98.0 
336.06488 1463.0 
336.096069 1507.0 
336.271301 246.0 
336.36557 112.0 
337.071106 36161.0 
338.07373 5676.0 
338.137482 149.0 
338.286072 108.0 
339.047852 818.0 
339.084869 2151.0 
340.093567 496.0 
341.103424 224.0 
342.094177 286.0 
344.058441 115.0 
345.044556 201.0 
345.074493 1251.0 
346.084686 1142.0 
347.050507 1051.0 
347.090698 4431.0 
348.085938 799.0 
348.351685 81.0 
348.548889 165.0 
348.630157 278.0 
348.745056 196.0 
348.969666 199.0 
349.071075 15911.0 
349.205811 203.0 
349.25415 266.0 
350.075928 3308.0 
350.33902 181.0 
350.996552 301.0 
351.086029 11209.0 
352.007233 117.0 
352.047424 132.0 
352.089142 2134.0 
352.481384 125.0 
353.04071 156.0 
353.072357 1240.0 
353.913239 158.0 
354.063263 167.0 
354.09787 96.0 
354.989288 220.0 
355.080811 23059.0 
355.129181 254.0 
355.514648 134.0 
355.561951 185.0 
356.083435 4647.0 
356.175232 88.0 
357.072693 963.0 
358.111603 236.0 
358.220886 118.0 
359.058838 135.0 
359.093353 492.0 
360.06485 288.0 
360.124268 108.0 
361.02475 532.0 
361.070343 8197.0 
362.072418 922.0 
362.868805 98.0 
363.084076 2599.0 
364.094025 899.0 
364.891907 169.0 
365.064178 1072.0 
365.100372 8524.0 
366.021759 91.0 
366.070648 295.0 
366.102509 1425.0 
366.892761 185.0 
367.083466 3397.0 
367.803009 245.0 
368.050903 281.0 
368.090149 429.0 
369.062012 481.0 
371.072266 223.0 
373.069214 2046.0 
373.120178 220.0 
373.166016 106.0 
374.072083 1236.0 
374.461487 208.0 
375.031799 117.0 
375.087341 6338.0 
376.090424 1557.0 
377.067444 1220.0 
377.097626 1664.0 
377.699066 67.0 
378.077545 523.0 
378.122314 176.0 
378.999359 203.0 
379.080688 34343.0 
379.275208 168.0 
379.647766 102.0 
380.084015 6805.0 
380.277985 104.0 
380.998596 192.0 
381.102722 1036.0 
382.109802 366.0 
382.647217 116.0 
383.107788 146.0 
385.077972 1808.0 
386.066437 229.0 
387.050323 313.0 
387.082794 1043.0 
388.097839 121.0 
388.996582 211.0 
389.070282 693.0 
389.106567 1664.0 
390.066986 262.0 
390.634949 255.0 
390.990051 106.0 
391.081055 19995.0 
391.894073 104.0 
392.085541 3591.0 
393.097473 1699.0 
393.243103 108.0 
394.097229 197.0 
394.618652 212.0 
395.077271 111.0 
396.089386 282.0 
397.092133 666.0 
398.061096 168.0 
398.102051 254.0 
399.080017 386.0 
400.101715 153.0 
400.727692 226.0 
401.048737 264.0 
401.103912 1653.0 
402.952576 165.0 
403.081909 16276.0 
403.185577 143.0 
404.086487 2603.0 
404.526855 161.0 
405.021942 286.0 
405.09491 928.0 
405.339539 109.0 
405.403778 271.0 
405.815552 137.0 
406.099213 154.0 
406.379395 141.0 
407.069855 301.0 
407.103516 649.0 
407.687988 157.0 
408.530182 352.0 
408.979156 300.0 
409.091766 24904.0 
409.50354 155.0 
410.096619 4350.0 
410.40863 134.0 
411.100677 348.0 
413.089355 312.0 
413.61731 221.0 
414.203217 206.0 
414.607513 211.0 
415.094482 2801.0 
416.024811 145.0 
416.08432 396.0 
417.09259 1506.0 
417.704498 114.0 
418.067047 168.0 
418.108673 279.0 
419.031494 174.0 
419.08197 506.0 
419.788086 79.0 
420.175049 176.0 
420.642822 92.0 
420.852905 131.0 
420.947388 92.0 
421.017609 218.0 
421.091919 19185.0 
421.453522 106.0 
422.018555 197.0 
422.092987 3579.0 
422.277496 89.0 
422.315674 184.0 
423.061218 475.0 
423.102722 326.0 
423.59436 96.0 
424.11496 131.0 
424.33374 114.0 
426.892883 137.0 
426.952576 116.0 
426.986115 219.0 
427.100159 16246.0 
427.494324 92.0 
427.77359 237.0 
428.105499 3419.0 
428.706573 99.0 
429.109406 1256.0 
429.34314 144.0 
430.100037 431.0 
430.825195 212.0 
430.873779 204.0 
431.088226 452.0 
431.121094 426.0 
432.124237 625.0 
433.023499 86.0 
433.089264 2599.0 
434.102661 129.0 
435.108459 512.0 
436.11853 228.0 
437.089355 95.0 
437.130829 240.0 
437.577911 82.0 
437.95108 133.0 
438.722137 116.0 
438.990845 157.0 
439.103699 28003.0 
439.259857 172.0 
439.904388 81.0 
440.104218 5593.0 
441.113922 834.0 
441.725586 80.0 
442.100555 117.0 
442.781738 89.0 
442.873535 143.0 
444.074493 125.0 
444.751343 128.0 
445.042358 248.0 
445.10553 4747.0 
445.194824 119.0 
446.100433 1236.0 
446.738861 184.0 
447.107178 570.0 
448.981506 92.0 
449.082672 147.0 
449.129303 1087.0 
450.118042 115.0 
451.103027 741.0 
453.084717 156.0 
454.038086 126.0 
454.647247 186.0 
455.347015 179.0 
455.61676 169.0 
455.85022 119.0 
456.770813 152.0 
456.890442 162.0 
456.998718 387.0 
457.113159 62587.0 
457.302429 163.0 
457.364594 86.0 
457.401672 95.0 
457.537598 93.0 
457.60614 126.0 
457.805634 93.0 
457.934998 163.0 
458.118073 11455.0 
458.194275 68.0 
458.575409 168.0 
458.833984 78.0 
458.90271 322.0 
459.113861 1901.0 
459.299347 134.0 
459.794434 119.0 
460.215271 97.0 
460.968872 106.0 
461.121368 120.0 
461.839966 181.0 
462.05954 139.0 
462.148712 141.0 
463.046417 95.0 
463.103149 4507.0 
463.828796 104.0 
464.103088 1086.0 
467.045593 164.0 
467.107239 435.0 
469.020599 220.0 
469.110596 1316.0 
470.108093 643.0 
471.092163 192.0 
471.981995 142.0 
472.096924 186.0 
475.032776 432.0 
475.123444 21507.0 
476.128845 5022.0 
476.270508 90.0 
477.12146 574.0 
478.785095 94.0 
479.08844 167.0 
479.130371 119.0 
481.000183 160.0 
481.052826 1435.0 
481.114136 14436.0 
482.114716 2490.0 
485.102448 110.0 
486.828949 79.0 
486.900177 94.0 
487.047119 185.0 
487.099915 2406.0 
487.210876 248.0 
487.544739 91.0 
488.1073 900.0 
493.114197 2377.0 
494.072754 280.0 
494.122742 220.0 
495.115082 518.0 
495.149963 476.0 
496.016754 91.0 
496.734619 186.0 
496.825348 118.0 
498.052582 94.0 
499.124298 13448.0 
499.234467 139.0 
499.859253 100.0 
500.127533 2108.0 
503.188751 80.0 
504.119446 150.0 
504.514526 118.0 
504.6716 204.0 
505.111328 3796.0 
505.315857 103.0 
505.99115 211.0 
506.056061 149.0 
506.107971 474.0 
506.970123 231.0 
511.009247 171.0 
511.124451 11578.0 
512.018311 73.0 
512.129456 2778.0 
521.385559 229.0 
521.766296 127.0 
522.258789 92.0 
522.944275 149.0 
523.123352 10751.0 
524.074768 485.0 
524.127869 1865.0 
527.675476 110.0 
529.134338 7040.0 
529.680176 236.0 
530.135193 1020.0 
530.395447 77.0 
531.140442 200.0 
540.020203 173.0 
540.764099 283.0 
540.992065 216.0 
541.134705 19070.0 
542.035645 103.0 
542.089966 381.0 
542.135376 2678.0 
543.150391 270.0 
552.35907 179.0 
557.092346 100.0 
558.218994 139.0 
558.47998 78.0 
558.766235 440.0 
558.835083 167.0 
558.993591 172.0 
559.144714 18781.0 
559.249268 171.0 
560.146606 4501.0 
561.119202 82.0 
561.157654 175.0 
574.507751 158.0 
576.091248 109.0 
576.632874 159.0 
576.903809 190.0 
576.978149 96.0 
577.028198 351.0 
577.155579 22968.0 
577.630432 151.0 
577.765259 230.0 
578.056885 392.0 
578.161011 4472.0 
579.160645 291.0 
594.163147 125.0 
594.395447 193.0 
595.026794 163.0 
595.06842 362.0 
595.165344 7674.0 
596.059265 186.0 
596.171875 1757.0 
825.538391 102.0 
897.474304 139.0 
918.532776 121.0 
921.741394 156.0 
930.359375 85.0 
935.761719 87.0 
1071.699097 98.0 
END IONS

BEGIN IONS
TITLE=Scan Number: 210
PEPMASS=289.07001
CHARGE=1+
MSLEVEL=2
FILENAME=E7_RE7_01_2863.mzXML
INSTRUMENT=ion trap
SCANS=210
SMILES=OC1=CC=C(CC2(O)OC3=CC(O)=CC(O)=C3C2=O)C=C1
INCHIKEY=LOFYFDPXORJJEE-UHFFFAOYSA-N
81.041718 237.0 
89.485237 275.0 
91.01593 207.0 
91.055588 494.0 
95.013405 324.0 
95.047554 220.0 
103.056732 134.0 
105.045654 647.0 
107.047737 4381.0 
108.05024 422.0 
111.006767 382.0 
114.783005 229.0 
115.036064 256.0 
116.057785 307.0 
118.047325 229.0 
119.049019 1084.0 
121.029434 2228.0 
121.102303 255.0 
127.036461 161.0 
128.062057 186.0 
130.616257 199.0 
131.050735 213.0 
133.056259 221.0 
135.00676 178.0 
135.04126 316.0 
137.022552 352.0 
141.04538 216.0 
141.069138 1482.0 
142.070648 189.0 
144.055206 615.0 
145.060425 186.0 
147.086044 441.0 
148.033524 112.0 
149.022552 5331.0 
149.271912 290.0 
150.028671 302.0 
152.057495 105.0 
153.017548 3370.0 
153.072327 104.0 
154.020721 169.0 
154.080185 121.0 
155.017258 119.0 
155.058243 751.0 
157.065323 788.0 
159.044357 350.0 
159.083664 532.0 
165.017899 154.0 
165.072021 132.0 
168.045349 587.0 
169.061508 1057.0 
170.065674 340.0 
171.073547 187.0 
173.060455 658.0 
179.054718 418.0 
180.053116 203.0 
181.060394 1039.0 
185.056992 192.0 
187.036407 320.0 
187.074371 545.0 
197.065201 1212.0 
197.136093 309.0 
198.063751 685.0 
199.073318 224.0 
201.012695 137.0 
211.978729 117.0 
213.056122 348.0 
215.069992 11448.0 
216.075333 996.0 
217.706833 324.0 
225.053436 623.0 
227.074844 501.0 
241.047928 117.0 
242.059601 182.0 
243.065308 8631.0 
244.069061 416.0 
271.059967 5644.0 
272.067871 244.0 
272.184265 141.0 
284.021057 150.0 
555.903748 122.0 
END IONS

BEGIN IONS
TITLE=Scan Number: 212
PEPMASS=306.09698
CHARGE=1+
MSLEVEL=2
FILENAME=E7_RE7_01_2863.mzXML
INSTRUMENT=ion trap
SCANS=212
SMILES=OC1=CC=C(CC2(O)OC3=CC(O)=CC(O)=C3C2=O)C=C1
INCHIKEY=LOFYFDPXORJJEE-UHFFFAOYSA-N
91.055565 980.0 
107.048813 1701.0 
108.055717 190.0 
119.050133 171.0 
121.027771 447.0 
122.032654 165.0 
125.681786 198.0 
132.092392 192.0 
134.033875 161.0 
139.004868 178.0 
141.045258 199.0 
141.072693 427.0 
144.055817 234.0 
145.062958 177.0 
147.078995 229.0 
149.022812 2618.0 
150.020218 130.0 
153.018143 668.0 
153.070969 404.0 
158.563889 178.0 
167.029037 115.0 
168.054779 167.0 
169.058685 249.0 
171.068665 229.0 
173.057358 115.0 
176.809845 146.0 
182.066986 99.0 
183.044693 150.0 
197.059128 1243.0 
199.051208 198.0 
200.076736 205.0 
213.046753 124.0 
215.068481 3519.0 
216.074524 458.0 
225.048859 392.0 
227.064331 224.0 
242.490952 134.0 
243.00145 94.0 
243.063766 4890.0 
244.072723 843.0 
246.085831 166.0 
253.044861 233.0 
270.440186 217.0 
271.061188 2090.0 
272.071594 321.0 
290.074097 143.0 
306.220917 183.0 
1814.897461 205.0 
END IONS

BEGIN IONS
TITLE=Scan Number: 214
PEPMASS=325.14301
CHARGE=1+
MSLEVEL=2
FILENAME=E7_RE7_01_2863.mzXML
INSTRUMENT=ion trap
SCANS=214
SMILES=CC(C)=CCC1=C2OC(CC(=O)C2=C(O)C=C1O)C3=CC=CC=C3
INCHIKEY=DAWSYIQAGQMLFS-UHFFFAOYSA-N
71.972702 193.0 
76.879776 159.0 
79.016815 829.0 
81.033501 1339.0 
82.03791 470.0 
90.347008 227.0 
91.01516 196.0 
91.054527 23476.0 
91.419403 250.0 
92.029999 105.0 
92.059196 1013.0 
92.840607 157.0 
92.998589 2073.0 
94.008659 161.0 
94.912567 135.0 
95.051598 204.0 
97.028214 1944.0 
97.927315 221.0 
98.035301 132.0 
98.706993 129.0 
99.007545 2439.0 
100.012611 196.0 
103.025108 212.0 
103.055214 4180.0 
104.059479 687.0 
105.043564 505.0 
105.070457 147.0 
109.027771 622.0 
109.911568 102.0 
110.031723 279.0 
115.053391 365.0 
116.314743 116.0 
117.016174 181.0 
117.06749 160.0 
121.032555 206.0 
122.031425 151.0 
123.008583 5050.0 
123.992523 135.0 
124.011024 303.0 
125.277275 295.0 
125.866974 207.0 
127.237762 256.0 
128.035431 238.0 
128.204239 288.0 
129.015381 65.0 
129.069244 376.0 
130.070999 279.0 
130.696716 122.0 
131.049255 17966.0 
131.331512 107.0 
131.899704 154.0 
132.051147 1276.0 
133.05545 271.0 
134.395111 280.0 
135.042511 147.0 
136.057083 293.0 
137.020935 3538.0 
138.031021 281.0 
138.947769 227.0 
139.034866 160.0 
140.923203 154.0 
140.985764 338.0 
141.018967 6996.0 
141.069916 4713.0 
142.021774 547.0 
142.074417 907.0 
142.965851 278.0 
145.06517 275.0 
147.007126 432.0 
147.044556 126.0 
149.021973 394.0 
150.807281 126.0 
151.060806 295.0 
151.924637 294.0 
152.036057 193.0 
152.062408 2533.0 
152.973495 110.0 
153.018448 330.0 
153.070633 4773.0 
154.003128 114.0 
154.024338 190.0 
154.069107 389.0 
154.235138 193.0 
155.047745 2619.0 
155.09198 388.0 
156.009979 205.0 
156.054413 476.0 
156.094482 190.0 
156.1698 189.0 
157.060837 267.0 
160.121796 134.0 
160.941986 139.0 
161.974792 204.0 
163.039444 170.0 
165.018906 86193.0 
165.074326 764.0 
165.225204 211.0 
165.250122 101.0 
165.314438 165.0 
165.424118 151.0 
165.993546 224.0 
166.023499 14327.0 
166.074875 225.0 
166.425659 192.0 
167.00174 68.0 
167.031387 115.0 
167.089432 2153.0 
167.136963 117.0 
167.400879 118.0 
167.456833 177.0 
168.091049 505.0 
168.899841 167.0 
169.064911 1681.0 
169.114517 91.0 
169.596481 171.0 
169.66655 154.0 
170.071838 1024.0 
173.067734 128.0 
174.219727 337.0 
175.036087 157.0 
175.581741 125.0 
176.05751 319.0 
177.071411 1671.0 
178.077911 446.0 
178.998459 234.0 
179.036743 2078.0 
179.079681 589.0 
180.909332 147.0 
180.939407 76.0 
181.066162 3710.0 
181.592346 151.0 
181.687836 84.0 
182.068893 835.0 
183.029266 14127.0 
183.083969 99.0 
184.034866 2352.0 
185.477066 119.0 
186.067062 136.0 
191.039383 299.0 
192.044693 293.0 
194.073715 135.0 
194.45607 248.0 
194.788788 115.0 
195.082779 1688.0 
196.085312 345.0 
197.060043 3332.0 
198.057739 820.0 
205.067841 1577.0 
208.062378 373.0 
209.06012 2698.0 
210.065842 272.0 
211.078934 179.0 
214.081421 153.0 
219.066315 110.0 
221.085526 1340.0 
223.077225 2511.0 
223.180527 153.0 
224.079926 126.0 
225.053101 184.0 
227.069855 2065.0 
228.051987 153.0 
229.378815 69.0 
233.062302 241.0 
234.064957 140.0 
241.08168 76.0 
251.072083 3769.0 
252.079117 319.0 
253.926331 102.0 
268.31842 96.0 
269.013214 309.0 
269.036011 292.0 
269.082123 49809.0 
269.39975 212.0 
269.453979 79.0 
270.087372 10869.0 
272.203217 111.0 
280.223969 132.0 
283.069824 76.0 
320.178192 124.0 
325.004425 72.0 
325.050079 257.0 
325.145386 16232.0 
325.238739 160.0 
326.085083 172.0 
326.150116 4482.0 
328.58783 105.0 
1913.31665 294.0 
END IONS

BEGIN IONS
TITLE=Scan Number: 215
PEPMASS=432.29501
CHARGE=1+
MSLEVEL=2
FILENAME=E7_RE7_01_2863.mzXML
INSTRUMENT=ion trap
SCANS=215
SMILES=CCCCCCC(O)CCCCCC\C=C\[C@H](O)[C@@H](O)[C@H](O)[C@H](NC(C)=O)C(O)=O
INCHIKEY=VKFZVQCKAPPEFZ-LNBSYBDWSA-N
70.028748 1192.0 
70.07103 273.0 
71.083397 123.0 
72.043541 178.0 
73.05159 244.0 
73.991318 168.0 
74.024132 2530.0 
75.025787 150.0 
76.215225 185.0 
77.038216 395.0 
79.052681 1614.0 
80.049683 788.0 
81.031555 1619.0 
81.050438 155.0 
81.070221 2996.0 
82.072075 552.0 
83.048279 1091.0 
83.085258 1177.0 
84.042229 172.0 
84.087997 184.0 
84.764488 171.0 
85.049316 337.0 
85.884544 221.0 
85.96904 125.0 
86.02269 5605.0 
86.442123 171.0 
87.009552 663.0 
87.576912 164.0 
88.039558 706.0 
91.054634 2363.0 
92.053238 353.0 
93.030029 256.0 
93.049774 116.0 
93.070694 3113.0 
94.040077 252.0 
94.07399 731.0 
95.012711 187.0 
95.05024 1143.0 
95.085297 5871.0 
96.043564 948.0 
96.087402 249.0 
97.06385 180.0 
97.102859 408.0 
98.061165 143.0 
98.105743 108.0 
99.007561 516.0 
100.039307 1234.0 
100.0812 187.0 
101.02372 122.0 
101.04068 148.0 
101.080826 161.0 
102.054855 400.0 
103.025406 173.0 
104.033806 17981.0 
104.699593 178.0 
104.996933 155.0 
105.041939 1230.0 
105.069008 1442.0 
106.064423 444.0 
106.773811 268.0 
107.047424 1880.0 
107.086189 2169.0 
108.006973 236.0 
108.041489 543.0 
108.07959 767.0 
109.026505 1371.0 
109.061852 367.0 
109.100357 2692.0 
110.024178 244.0 
110.058975 1127.0 
110.107231 207.0 
110.146889 167.0 
111.028679 160.0 
111.044754 503.0 
111.079834 380.0 
111.11869 314.0 
112.040871 501.0 
112.073807 149.0 
113.090332 259.0 
113.987785 202.0 
114.018417 7725.0 
114.055496 188.0 
115.026894 192.0 
115.050835 259.0 
117.069412 1196.0 
117.365364 227.0 
118.065247 520.0 
118.103043 184.0 
119.047752 287.0 
119.085739 2361.0 
120.051682 182.0 
120.080299 377.0 
121.028305 167.0 
121.064911 616.0 
121.10041 1895.0 
122.059952 1762.0 
122.107964 212.0 
123.046509 1013.0 
123.084145 306.0 
123.1157 792.0 
124.038383 2596.0 
124.10067 95.0 
124.11956 241.0 
125.033356 301.0 
126.03035 266.0 
126.05719 308.0 
127.053589 126.0 
127.114388 166.0 
128.001816 146.0 
128.034058 1644.0 
128.070755 300.0 
129.038742 299.0 
129.069016 359.0 
130.050812 265.0 
131.085541 1677.0 
132.056763 139.0 
132.083084 602.0 
133.029388 136.0 
133.067368 825.0 
133.099945 1261.0 
134.043976 124.0 
134.069565 285.0 
134.09642 120.0 
135.041382 338.0 
135.080383 826.0 
135.115433 1264.0 
136.074905 462.0 
137.059814 604.0 
137.092651 163.0 
137.136765 319.0 
138.055817 685.0 
138.089554 149.0 
139.047852 186.0 
142.050171 386.0 
142.075653 228.0 
142.22023 154.0 
143.033676 192.0 
143.084106 478.0 
144.076752 442.0 
145.061554 331.0 
145.087524 144.0 
146.016449 194.0 
146.044189 12574.0 
146.073959 192.0 
146.300293 161.0 
147.046432 830.0 
147.081772 1279.0 
147.118622 606.0 
148.046921 235.0 
148.080231 482.0 
148.107864 209.0 
148.226273 101.0 
148.917664 221.0 
149.066544 372.0 
149.132248 980.0 
149.408737 190.0 
150.053345 270.0 
150.088989 468.0 
150.142349 129.0 
151.03801 5257.0 
151.092133 204.0 
152.042206 541.0 
152.073837 295.0 
152.141739 187.0 
153.056122 367.0 
154.053207 304.0 
154.082397 245.0 
156.050934 144.0 
157.068405 746.0 
157.102356 765.0 
157.593826 105.0 
158.039383 158.0 
158.108902 177.0 
159.113968 855.0 
161.057617 146.0 
161.097748 759.0 
161.132233 1569.0 
161.724915 76.0 
162.060425 554.0 
162.138031 275.0 
163.076477 558.0 
163.112732 541.0 
163.147629 915.0 
164.071884 760.0 
164.12265 190.0 
165.056458 233.0 
165.144287 242.0 
166.211212 110.0 
167.06105 269.0 
167.14473 134.0 
168.06572 524.0 
168.100922 123.0 
169.102463 122.0 
169.160797 167.0 
170.056793 165.0 
170.190048 314.0 
171.054047 127.0 
171.114334 895.0 
172.117401 204.0 
174.06987 188.0 
175.076675 946.0 
175.150055 352.0 
177.128754 112.0 
178.094727 205.0 
179.034546 248.0 
179.066849 472.0 
179.11142 324.0 
179.151382 194.0 
181.099121 198.0 
182.076553 199.0 
184.054306 148.0 
184.131104 165.0 
184.172501 141.0 
185.096298 715.0 
185.130493 379.0 
186.556061 95.0 
187.1465 368.0 
188.069901 119.0 
188.09491 192.0 
189.04776 202.0 
189.091599 1185.0 
189.167801 376.0 
191.103439 547.0 
191.146042 204.0 
191.182022 448.0 
192.06308 155.0 
192.187439 138.0 
193.081711 132.0 
194.087158 175.0 
194.150497 124.0 
197.102371 140.0 
199.108749 171.0 
199.147354 318.0 
200.105896 198.0 
201.082916 142.0 
203.106369 465.0 
203.139191 110.0 
203.181213 473.0 
204.110992 161.0 
204.188675 153.0 
205.133987 230.0 
205.197647 708.0 
206.120087 148.0 
206.20192 233.0 
207.097412 276.0 
207.154541 170.0 
207.216507 396.0 
208.206711 138.0 
209.11441 246.0 
210.226837 175.0 
213.202194 218.0 
216.141708 118.0 
216.179306 166.0 
217.119736 292.0 
217.846863 260.0 
219.179153 363.0 
219.2108 537.0 
220.164658 184.0 
220.203812 427.0 
221.228165 135.0 
222.151031 195.0 
222.179489 190.0 
223.149124 104.0 
224.158386 152.0 
225.044983 127.0 
225.159515 248.0 
227.145767 109.0 
227.569931 150.0 
227.915787 96.0 
229.192444 539.0 
230.197983 421.0 
230.771561 199.0 
231.210419 888.0 
232.030029 246.0 
232.208328 127.0 
233.222229 316.0 
233.413605 127.0 
234.192627 102.0 
236.237701 636.0 
238.598953 220.0 
240.182205 175.0 
241.19989 417.0 
242.193954 98.0 
243.148468 125.0 
243.207275 414.0 
244.205505 181.0 
245.157898 162.0 
245.227448 936.0 
246.225388 112.0 
247.206284 476.0 
248.209732 300.0 
249.220062 1363.0 
250.231674 150.0 
251.233536 229.0 
252.192612 140.0 
253.301453 261.0 
253.58165 250.0 
255.208237 1307.0 
256.214417 233.0 
257.230286 2844.0 
258.228424 360.0 
259.162201 119.0 
259.208435 1033.0 
261.222412 3710.0 
262.225067 880.0 
262.250336 883.0 
263.240753 1061.0 
265.195923 428.0 
265.27063 121.0 
272.237213 1021.0 
273.073242 227.0 
273.179626 172.0 
273.220062 3032.0 
274.224152 440.0 
274.257233 2141.0 
275.184265 198.0 
275.233429 789.0 
275.250153 732.0 
276.158417 98.0 
277.216431 370.0 
279.228973 830.0 
281.237 471.0 
283.204651 832.0 
284.21051 174.0 
284.527527 183.0 
290.143829 252.0 
290.24826 10561.0 
291.190857 217.0 
291.250854 1854.0 
292.263794 3384.0 
293.126984 179.0 
293.235901 150.0 
293.27356 363.0 
300.229095 1139.0 
301.169678 295.0 
301.216431 5967.0 
302.214417 126.0 
304.257507 132.0 
308.257935 3568.0 
309.258911 552.0 
314.002625 188.0 
314.248383 244.0 
315.262543 161.0 
316.269257 550.0 
317.266479 150.0 
317.459991 244.0 
318.10437 97.0 
318.242126 4700.0 
318.424652 117.0 
318.657654 92.0 
318.84024 169.0 
318.933014 279.0 
319.18631 157.0 
319.227844 8687.0 
319.747131 82.0 
320.230438 751.0 
320.57373 109.0 
323.128174 282.0 
326.274994 212.0 
327.599731 148.0 
327.811157 141.0 
331.872803 189.0 
332.256256 1988.0 
333.260956 476.0 
334.280273 1508.0 
334.725342 93.0 
336.163696 206.0 
336.253723 14197.0 
337.257233 2663.0 
338.027954 97.0 
339.107635 167.0 
339.258209 161.0 
340.417236 140.0 
342.243805 296.0 
343.153015 112.0 
347.154144 125.0 
350.219696 207.0 
350.269653 3346.0 
351.25119 343.0 
354.165863 186.0 
354.263824 5374.0 
355.267181 534.0 
360.254395 1700.0 
361.253815 167.0 
372.265961 93.0 
373.281708 250.0 
378.262726 6027.0 
379.267639 1410.0 
386.169769 192.0 
395.509399 130.0 
396.172546 99.0 
396.22287 187.0 
396.275757 6510.0 
397.283203 858.0 
397.428772 255.0 
414.288239 157.0 
433.256012 101.0 
433.329315 154.0 
1571.440674 325.0 
END IONS

BEGIN IONS
TITLE=Scan Number: 216
PEPMASS=414.284
CHARGE=1+
MSLEVEL=2
FILENAME=E7_RE7_01_2863.mzXML
INSTRUMENT=ion trap
SCANS=216
SMILES=CCCCCCC(O)CCCCCC\C=C\[C@H](O)[C@@H](O)[C@H](O)[C@H](NC(C)=O)C(O)=O
INCHIKEY=VKFZVQCKAPPEFZ-LNBSYBDWSA-N
70.012184 113.0 
70.069756 222.0 
70.715393 168.0 
71.01136 255.0 
72.046425 907.0 
74.022202 2403.0 
74.47699 87.0 
75.608871 73.0 
77.170288 169.0 
78.040497 261.0 
78.171005 259.0 
79.053932 3959.0 
80.051682 766.0 
80.718002 431.0 
81.010704 174.0 
81.033226 986.0 
81.069786 6559.0 
82.031235 91.0 
82.045258 444.0 
82.06485 2516.0 
82.372505 136.0 
82.956352 153.0 
83.050079 2052.0 
83.070656 429.0 
83.085098 2370.0 
84.043503 1005.0 
84.086296 151.0 
84.341286 143.0 
84.428757 224.0 
86.023773 1065.0 
86.061356 420.0 
87.00898 201.0 
89.220062 242.0 
91.05423 4689.0 
92.05706 134.0 
93.034241 912.0 
93.069832 6720.0 
94.030258 387.0 
94.064941 1874.0 
94.251923 176.0 
95.024948 195.0 
95.048103 1721.0 
95.084946 5689.0 
96.04393 979.0 
96.089821 1279.0 
97.03154 475.0 
97.065361 687.0 
97.103065 885.0 
97.64212 161.0 
98.021484 502.0 
98.059776 1099.0 
100.003929 157.0 
100.038261 4519.0 
100.072609 156.0 
101.113152 109.0 
101.948738 254.0 
102.05661 466.0 
103.054924 139.0 
104.034332 953.0 
105.04174 1864.0 
105.070335 4024.0 
106.066383 1840.0 
107.050087 3253.0 
107.085205 4171.0 
108.048615 840.0 
108.081177 1146.0 
109.043449 255.0 
109.068695 493.0 
109.101814 3623.0 
109.774529 363.0 
110.058556 1703.0 
110.093575 102.0 
110.331459 209.0 
111.042328 1085.0 
111.061943 407.0 
111.09182 298.0 
111.11692 833.0 
111.614792 193.0 
112.037941 1467.0 
112.082787 218.0 
113.078087 184.0 
113.098282 355.0 
114.021652 134.0 
114.051872 420.0 
115.053398 715.0 
115.763512 307.0 
116.03363 232.0 
116.060242 197.0 
117.067818 3131.0 
118.049492 218.0 
118.071648 473.0 
119.050034 409.0 
119.084427 4175.0 
119.790672 73.0 
120.045891 279.0 
120.060219 344.0 
120.082634 831.0 
121.065826 571.0 
121.100349 4967.0 
121.689491 250.0 
122.061722 1650.0 
122.103073 1181.0 
122.666618 160.0 
123.044426 1359.0 
123.067017 522.0 
123.079857 634.0 
123.115524 884.0 
123.160591 209.0 
124.039383 5022.0 
124.076706 1254.0 
124.557938 188.0 
124.580894 255.0 
125.024506 524.0 
125.073807 369.0 
125.099335 592.0 
125.128372 71.0 
126.019592 804.0 
126.054024 968.0 
127.038177 177.0 
127.057335 379.0 
128.00705 308.0 
128.034592 6639.0 
128.069412 2503.0 
128.706879 112.0 
129.035965 495.0 
129.070801 1259.0 
129.668777 115.0 
130.049911 696.0 
130.072586 1541.0 
131.051834 141.0 
131.084366 4923.0 
131.932083 126.0 
132.082336 1255.0 
132.894226 441.0 
133.028793 390.0 
133.060776 491.0 
133.101059 2739.0 
134.057663 663.0 
134.098969 598.0 
135.045319 743.0 
135.081009 645.0 
135.116913 4118.0 
135.808746 230.0 
136.040466 172.0 
136.075134 345.0 
136.10672 90.0 
137.046921 190.0 
137.094376 449.0 
137.133438 1214.0 
138.055206 2660.0 
138.089493 391.0 
138.132065 254.0 
138.499023 210.0 
139.058243 170.0 
139.107986 194.0 
140.10582 247.0 
141.056839 149.0 
141.120728 100.0 
142.050934 551.0 
142.078018 93.0 
143.050339 225.0 
143.085861 2240.0 
143.710587 246.0 
144.02681 1070.0 
144.057495 170.0 
144.089798 456.0 
145.063446 337.0 
145.100616 3669.0 
146.057251 207.0 
146.100357 989.0 
147.042877 1013.0 
147.076355 311.0 
147.115952 2134.0 
148.03624 168.0 
148.072327 120.0 
149.040436 138.0 
149.059326 592.0 
149.094208 350.0 
149.131729 1174.0 
150.055862 2300.0 
150.093552 131.0 
150.129196 191.0 
151.03804 1211.0 
151.101074 228.0 
151.145844 928.0 
152.047028 165.0 
152.071274 1430.0 
152.110825 544.0 
152.14064 209.0 
152.815903 114.0 
153.056244 276.0 
153.16066 134.0 
153.322205 79.0 
153.72702 277.0 
154.078598 530.0 
155.062698 494.0 
156.060013 158.0 
156.137665 125.0 
156.17366 161.0 
157.014801 139.0 
157.063766 286.0 
157.100601 1413.0 
158.661407 208.0 
159.072113 741.0 
159.117111 3208.0 
160.113586 708.0 
160.398468 170.0 
161.058624 731.0 
161.097672 146.0 
161.13327 1418.0 
162.055374 439.0 
162.101837 406.0 
162.133148 664.0 
162.352448 70.0 
163.0737 161.0 
163.115494 691.0 
163.148849 917.0 
163.480881 166.0 
164.069565 177.0 
164.103195 280.0 
164.159439 206.0 
165.115204 144.0 
165.161438 316.0 
165.505005 134.0 
166.050034 903.0 
166.154373 124.0 
167.107285 167.0 
167.14505 177.0 
168.071365 220.0 
169.063553 226.0 
169.102036 418.0 
170.085434 403.0 
170.108322 259.0 
170.150208 89.0 
171.078857 850.0 
171.115494 1458.0 
172.104996 661.0 
173.041672 91.0 
173.099335 393.0 
173.133942 1132.0 
174.131302 452.0 
175.075409 757.0 
175.109543 411.0 
175.150467 1826.0 
175.517776 92.0 
176.102097 114.0 
176.147018 1752.0 
176.464294 340.0 
176.510651 198.0 
177.091309 737.0 
177.128326 158.0 
177.163101 927.0 
178.085922 323.0 
178.123306 408.0 
179.107269 162.0 
179.185272 312.0 
180.063385 136.0 
181.121078 73.0 
181.195724 170.0 
182.083633 197.0 
182.121246 437.0 
183.077347 77.0 
184.127579 707.0 
185.098938 645.0 
185.13179 1381.0 
186.10701 464.0 
186.136353 384.0 
186.688629 188.0 
187.11351 257.0 
187.146255 1224.0 
188.110962 685.0 
188.146378 239.0 
189.131363 86.0 
189.166031 804.0 
190.121857 253.0 
190.165359 201.0 
191.108505 1107.0 
191.178467 1672.0 
192.065826 140.0 
192.112183 162.0 
192.179565 919.0 
193.16217 359.0 
193.201767 196.0 
194.163254 139.0 
195.169296 133.0 
196.118866 179.0 
196.173294 336.0 
196.211258 148.0 
197.097153 142.0 
198.149429 195.0 
199.155457 242.0 
200.151093 283.0 
201.125946 210.0 
201.161026 613.0 
202.101059 127.0 
202.128784 182.0 
202.166321 196.0 
203.105484 436.0 
203.180893 900.0 
204.183578 149.0 
205.118729 617.0 
205.156693 290.0 
205.196869 1276.0 
206.078552 102.0 
206.128494 145.0 
207.089615 90.0 
207.132233 173.0 
208.099503 171.0 
208.126282 336.0 
208.198746 194.0 
209.143082 243.0 
209.189148 1067.0 
209.333939 121.0 
210.111664 244.0 
210.199173 276.0 
212.104904 117.0 
213.165894 314.0 
213.652557 171.0 
214.132568 253.0 
214.982346 193.0 
215.123398 223.0 
215.146576 394.0 
215.174377 267.0 
216.114136 83.0 
216.140305 138.0 
217.122345 750.0 
217.157608 290.0 
217.194595 903.0 
218.152756 150.0 
218.197083 301.0 
219.209778 3343.0 
220.213379 923.0 
221.136307 296.0 
222.149231 320.0 
222.183609 167.0 
223.151108 182.0 
224.103577 184.0 
224.16008 141.0 
225.165741 170.0 
226.229553 248.0 
227.179886 371.0 
228.142166 197.0 
229.194992 1607.0 
230.197113 366.0 
230.226913 316.0 
231.142578 802.0 
231.209732 1182.0 
232.138733 307.0 
232.185333 172.0 
233.155167 135.0 
233.224258 1041.0 
234.148849 111.0 
234.194962 140.0 
234.225739 133.0 
235.147598 269.0 
235.218063 72.0 
236.195297 132.0 
237.163193 209.0 
237.21756 252.0 
237.245956 186.0 
238.144867 193.0 
238.246155 193.0 
241.198196 314.0 
242.197189 239.0 
243.178665 145.0 
243.210144 891.0 
244.132904 158.0 
244.203827 298.0 
245.227768 3025.0 
246.231445 301.0 
246.269287 306.0 
247.205185 447.0 
247.836716 197.0 
248.236038 261.0 
249.222198 2579.0 
250.145859 175.0 
250.224136 143.0 
250.250336 326.0 
250.368027 181.0 
251.136597 91.0 
251.208649 190.0 
251.23735 890.0 
253.190796 121.0 
255.210327 3759.0 
256.211731 280.0 
257.160248 227.0 
257.227478 11684.0 
257.653839 131.0 
257.977783 161.0 
258.230652 1127.0 
258.700165 116.0 
258.821716 194.0 
259.199829 141.0 
260.206146 102.0 
260.235229 312.0 
261.148743 130.0 
261.220734 19162.0 
261.28894 305.0 
262.224396 3741.0 
262.251434 1171.0 
262.353607 162.0 
263.241547 954.0 
263.500916 102.0 
264.271606 325.0 
272.236481 6628.0 
273.220978 1659.0 
274.253418 8151.0 
274.930573 88.0 
275.236389 4588.0 
276.182556 86.0 
276.231964 1086.0 
276.275208 173.0 
276.725464 78.0 
279.22345 802.0 
280.13913 124.0 
280.264771 185.0 
281.247894 156.0 
283.090576 319.0 
283.204773 1574.0 
283.507202 490.0 
284.212769 175.0 
285.896667 181.0 
288.621094 121.0 
289.097778 187.0 
289.65451 90.0 
290.136627 146.0 
290.24765 10258.0 
290.494324 155.0 
290.589294 71.0 
291.210449 203.0 
291.254883 1210.0 
291.597107 86.0 
292.153564 138.0 
292.206421 193.0 
292.263306 14562.0 
292.311829 98.0 
293.26535 1830.0 
294.032654 163.0 
294.267303 292.0 
295.567291 86.0 
296.366058 141.0 
298.25589 194.0 
299.213593 90.0 
300.231079 4001.0 
301.217194 6194.0 
302.219727 1496.0 
304.219482 103.0 
308.263855 1070.0 
309.254028 383.0 
310.275177 421.0 
311.665222 101.0 
314.245148 995.0 
315.259064 187.0 
316.262146 2512.0 
317.270325 265.0 
317.457062 94.0 
317.594147 112.0 
318.243286 15107.0 
318.574158 62.0 
319.24823 3243.0 
320.229309 162.0 
324.235718 387.0 
325.236603 164.0 
326.271027 108.0 
326.847656 73.0 
332.203278 173.0 
332.2565 1031.0 
332.336731 69.0 
334.276245 5494.0 
335.279236 1311.0 
335.436981 243.0 
336.253479 11013.0 
337.255951 2013.0 
338.702148 71.0 
342.244019 2989.0 
343.173981 178.0 
343.24939 775.0 
350.273438 873.0 
352.276978 134.0 
354.26181 234.0 
358.891785 125.0 
360.253845 4911.0 
361.214905 278.0 
361.259491 734.0 
362.244385 108.0 
377.358002 97.0 
377.550507 113.0 
377.708099 281.0 
378.263641 2875.0 
379.269562 597.0 
386.485687 79.0 
414.30307 120.0 
415.296661 103.0 
488.881104 109.0 
1087.423706 272.0 
1361.873169 335.0 
1386.888184 187.0 
1505.384155 219.0 
1648.495117 273.0 
1786.457275 263.0 
1895.956055 209.0 
1966.380127 334.0 
1980.042847 342.0 
1997.688965 193.0 
END IONS

BEGIN IONS
TITLE=Scan Number: 217
PEPMASS=555.367
CHARGE=1+
MSLEVEL=2
FILENAME=E7_RE7_01_2863.mzXML
INSTRUMENT=ion trap
SCANS=217
SMILES=C[C@H](CCC(=C)[C@@H](C)C(O)=O)[C@H]1CCC2(C)C3=C(C[C@H](O)[C@]12C)[C@@]4(C)CC[C@@H](OC(=O)CC(O)=O)C(C)(C)C4CC3
INCHIKEY=HMOMGSPWDYKCAH-CBLCVTABSA-N
71.049591 259.0 
75.253181 337.0 
79.053337 1553.0 
79.098297 120.0 
81.070442 1448.0 
81.985153 210.0 
82.07029 260.0 
82.834755 234.0 
83.085556 1652.0 
83.473801 91.0 
85.060089 243.0 
85.478294 169.0 
87.005943 229.0 
91.055191 1766.0 
91.62101 309.0 
93.069977 7227.0 
93.970985 97.0 
94.071686 913.0 
95.028328 174.0 
95.084724 5361.0 
96.08857 214.0 
97.064354 161.0 
97.094116 351.0 
98.061821 358.0 
99.072861 229.0 
99.352127 271.0 
99.422859 277.0 
101.082336 157.0 
103.054832 101.0 
105.069519 4086.0 
106.074326 485.0 
107.084976 12291.0 
107.199966 305.0 
108.088112 311.0 
109.10125 7356.0 
110.102478 770.0 
110.470787 183.0 
111.038223 142.0 
111.078644 687.0 
111.551437 106.0 
112.521515 113.0 
112.597404 236.0 
113.956436 181.0 
114.11882 188.0 
116.232521 238.0 
117.0662 684.0 
118.071823 185.0 
118.544014 311.0 
119.062462 868.0 
119.085556 11983.0 
120.061562 177.0 
120.088623 1934.0 
121.100456 15127.0 
122.104927 1253.0 
123.080894 152.0 
123.11602 4488.0 
127.074051 277.0 
127.111855 227.0 
129.070038 334.0 
129.095673 277.0 
131.084717 4431.0 
131.919205 218.0 
132.088364 119.0 
133.077194 1355.0 
133.100525 9777.0 
134.104874 907.0 
135.068741 197.0 
135.116318 19456.0 
136.120026 1385.0 
137.039917 101.0 
137.059128 164.0 
137.131699 1835.0 
138.135788 152.0 
139.077271 420.0 
139.1091 210.0 
140.119415 189.0 
141.068665 605.0 
142.07373 311.0 
143.084793 1655.0 
143.248734 357.0 
144.091644 986.0 
145.068176 220.0 
145.100037 5005.0 
146.104477 567.0 
146.648041 89.0 
147.090012 589.0 
147.115875 10842.0 
148.115173 657.0 
149.102448 441.0 
149.133377 7505.0 
150.134064 451.0 
151.148819 1113.0 
152.882935 120.0 
153.092056 989.0 
153.127655 846.0 
154.62204 97.0 
155.084244 328.0 
155.107529 1432.0 
156.093185 679.0 
157.062439 159.0 
157.100327 4335.0 
158.108109 953.0 
159.116135 10993.0 
160.119568 1132.0 
161.061981 194.0 
161.132019 4954.0 
162.134933 946.0 
162.270477 155.0 
163.11235 208.0 
163.148605 1630.0 
164.109161 224.0 
164.149796 323.0 
165.092087 87.0 
165.152664 178.0 
167.115494 272.0 
168.093735 105.0 
169.096237 420.0 
169.238556 162.0 
170.107956 498.0 
171.116028 4849.0 
172.119476 650.0 
173.100433 437.0 
173.131683 6581.0 
173.728333 197.0 
174.139572 1283.0 
175.14595 5371.0 
176.150421 844.0 
177.163391 679.0 
177.571594 75.0 
177.789322 843.0 
178.161118 180.0 
179.103912 928.0 
179.142471 142.0 
181.119385 172.0 
183.117508 457.0 
184.120224 294.0 
185.133072 6067.0 
185.335968 177.0 
186.112991 152.0 
186.136108 312.0 
186.326431 257.0 
187.149185 7244.0 
187.431381 80.0 
188.152267 1198.0 
189.104156 151.0 
189.163773 5093.0 
190.163208 276.0 
190.335464 114.0 
191.102173 111.0 
191.174759 141.0 
191.893951 95.0 
193.094299 163.0 
193.120834 519.0 
193.543808 125.0 
195.112885 405.0 
195.898636 111.0 
197.132645 1280.0 
198.140701 899.0 
199.100861 154.0 
199.147598 3575.0 
200.148132 1022.0 
201.049591 145.0 
201.131882 549.0 
201.162155 4400.0 
202.150711 220.0 
202.171127 436.0 
203.178665 2094.0 
204.182205 540.0 
207.137543 487.0 
209.127182 226.0 
209.154526 184.0 
210.136261 327.0 
211.148926 1837.0 
212.16124 942.0 
212.374786 87.0 
213.106796 111.0 
213.162659 2715.0 
214.168381 1785.0 
215.178558 3594.0 
216.183594 262.0 
217.190186 465.0 
219.142792 108.0 
221.155151 456.0 
223.123718 132.0 
223.168411 140.0 
224.144653 126.0 
225.127228 181.0 
225.163864 1145.0 
225.725098 168.0 
226.175461 1481.0 
226.659668 84.0 
227.179016 3802.0 
227.852051 103.0 
228.186447 2644.0 
229.138214 158.0 
229.166931 270.0 
229.193161 2844.0 
230.153854 258.0 
230.195129 249.0 
232.221191 151.0 
233.152527 227.0 
235.134705 129.0 
236.14743 135.0 
237.170227 259.0 
238.16922 213.0 
239.13266 226.0 
239.181747 2005.0 
240.18837 1139.0 
241.105789 189.0 
241.195175 12627.0 
242.198639 1709.0 
243.130997 104.0 
243.176102 162.0 
243.210785 2078.0 
244.031769 107.0 
244.21405 261.0 
244.963181 88.0 
245.159012 378.0 
245.194641 333.0 
246.153748 157.0 
246.333572 202.0 
247.172607 241.0 
247.20636 160.0 
248.160858 80.0 
249.180206 506.0 
251.180298 239.0 
252.199692 141.0 
253.144241 160.0 
253.176834 738.0 
253.199692 1462.0 
254.201172 391.0 
255.177902 241.0 
255.211792 6238.0 
256.1651 109.0 
256.211151 699.0 
256.657928 214.0 
257.225769 3010.0 
258.235657 449.0 
259.177887 404.0 
261.149109 126.0 
261.18985 400.0 
263.19809 311.0 
263.7435 90.0 
265.190369 183.0 
265.221375 164.0 
267.210083 1126.0 
269.221497 1003.0 
270.227631 225.0 
271.243713 414.0 
272.236267 155.0 
273.190186 612.0 
274.174316 234.0 
275.200592 794.0 
276.199829 143.0 
277.219147 153.0 
277.564941 233.0 
279.203064 154.0 
280.20871 149.0 
281.229401 1046.0 
282.226471 223.0 
283.23996 1889.0 
284.238068 115.0 
285.198334 132.0 
287.164001 155.0 
287.203094 744.0 
289.213806 146.0 
293.229218 318.0 
294.22876 308.0 
295.241272 1312.0 
296.251373 292.0 
297.134491 203.0 
297.258026 2688.0 
298.264099 436.0 
299.912964 112.0 
301.225037 1464.0 
302.213806 451.0 
303.226501 195.0 
307.243805 196.0 
309.213531 340.0 
309.259949 507.0 
311.280731 79.0 
313.216949 2247.0 
314.218536 287.0 
314.497925 224.0 
315.230316 6754.0 
316.234924 1296.0 
316.377899 187.0 
316.587646 212.0 
316.849854 145.0 
317.250366 753.0 
317.733429 103.0 
318.249207 400.0 
318.62027 234.0 
320.268555 282.0 
321.26062 137.0 
322.30011 180.0 
323.267517 524.0 
323.916443 181.0 
325.258026 187.0 
325.287415 261.0 
327.22757 832.0 
329.197968 153.0 
329.24826 3282.0 
329.518951 282.0 
330.25531 597.0 
331.188385 364.0 
331.257935 392.0 
333.207153 438.0 
334.212677 187.0 
335.265564 149.0 
337.075439 101.0 
337.263763 464.0 
337.294067 1127.0 
338.293427 643.0 
339.231415 114.0 
340.321259 307.0 
341.25058 1350.0 
341.322968 114.0 
342.250793 116.0 
343.256073 475.0 
344.253998 139.0 
345.207001 4358.0 
345.359924 238.0 
346.215057 549.0 
347.238739 260.0 
349.253723 98.0 
349.297668 134.0 
350.298401 215.0 
353.250793 162.0 
355.177765 177.0 
355.263092 7219.0 
356.266876 2112.0 
357.280121 508.0 
358.284149 101.0 
359.219543 1113.0 
360.186981 278.0 
360.222656 220.0 
360.653992 367.0 
361.241699 596.0 
361.969208 100.0 
362.236389 114.0 
363.276093 222.0 
366.346466 191.0 
367.266968 2304.0 
368.267609 226.0 
368.296844 191.0 
369.273743 311.0 
370.294159 217.0 
371.220367 168.0 
371.286682 162.0 
373.239838 85.0 
375.309967 182.0 
377.348663 228.0 
379.2547 106.0 
381.245422 355.0 
381.28244 613.0 
382.274139 461.0 
383.302887 483.0 
387.262848 191.0 
387.29718 140.0 
389.254578 136.0 
391.301666 128.0 
392.309265 283.0 
395.255493 229.0 
395.29538 553.0 
396.300995 130.0 
401.266113 99.0 
405.358948 401.0 
407.36264 499.0 
408.37619 115.0 
409.307465 167.0 
410.311951 317.0 
415.331299 196.0 
421.299286 107.0 
423.357361 117.0 
425.561798 138.0 
427.430389 132.0 
427.87146 108.0 
428.00766 95.0 
433.339355 797.0 
436.328094 298.0 
436.88623 183.0 
437.338379 259.0 
441.298309 440.0 
442.30777 606.0 
450.334412 111.0 
450.514038 171.0 
450.963226 167.0 
451.177856 109.0 
451.211609 176.0 
451.257446 573.0 
451.358185 61446.0 
452.035126 136.0 
452.298645 431.0 
452.358032 13425.0 
452.985046 78.0 
453.3685 1300.0 
454.208893 108.0 
454.987 77.0 
455.312683 125.0 
456.721252 85.0 
468.019714 74.0 
469.370789 97.0 
473.743195 98.0 
502.974701 191.0 
510.367462 223.0 
511.376343 263.0 
525.436707 148.0 
537.390625 255.0 
553.859375 110.0 
554.051575 112.0 
554.390259 253.0 
554.428345 348.0 
555.368347 17048.0 
555.944641 199.0 
556.371948 5004.0 
557.131531 78.0 
557.380249 323.0 
1303.346313 376.0 
1402.040161 286.0 
1881.538452 318.0 
1896.665527 257.0 
1917.830322 239.0 
2000.258179 155.0 
END IONS

BEGIN IONS
TITLE=Scan Number: 218
PEPMASS=590.40503
CHARGE=1+
MSLEVEL=2
FILENAME=E7_RE7_01_2863.mzXML
INSTRUMENT=ion trap
SCANS=218
SMILES=C[C@H](CCC(=C)[C@@H](C)C(O)=O)[C@H]1CCC2(C)C3=C(C[C@H](O)[C@]12C)[C@@]4(C)CC[C@@H](OC(=O)CC(O)=O)C(C)(C)C4CC3
INCHIKEY=HMOMGSPWDYKCAH-CBLCVTABSA-N
75.134888 169.0 
79.055489 485.0 
80.056358 263.0 
81.071449 317.0 
86.67923 246.0 
93.069748 439.0 
95.085999 2075.0 
100.17469 175.0 
105.068588 476.0 
107.084991 3647.0 
109.1008 1457.0 
109.167526 110.0 
111.117691 186.0 
117.073212 337.0 
119.084702 904.0 
121.101639 2622.0 
123.11454 652.0 
127.114571 499.0 
129.09729 225.0 
131.085556 671.0 
133.080185 161.0 
133.100403 1541.0 
135.116592 2251.0 
136.117249 155.0 
137.094177 93.0 
137.131271 482.0 
144.088333 418.0 
145.099167 1409.0 
147.11644 1634.0 
148.120407 409.0 
149.100403 209.0 
149.132401 778.0 
151.079163 238.0 
153.084503 136.0 
153.132278 466.0 
155.10318 554.0 
157.1035 550.0 
158.105759 281.0 
159.116608 1710.0 
160.119492 141.0 
161.133133 866.0 
162.133041 156.0 
162.367065 216.0 
163.147232 492.0 
171.117081 726.0 
173.131409 997.0 
174.137115 395.0 
175.127899 152.0 
175.149109 734.0 
176.128311 188.0 
177.162933 435.0 
179.103973 203.0 
183.112213 167.0 
184.119812 139.0 
185.130875 895.0 
186.153519 261.0 
187.147369 2564.0 
189.163055 1012.0 
191.144867 404.0 
191.178329 313.0 
194.121262 194.0 
195.095901 111.0 
195.130692 226.0 
199.111816 127.0 
199.145309 510.0 
199.602051 245.0 
201.164261 906.0 
202.173935 414.0 
202.487534 136.0 
203.106812 204.0 
203.17662 113.0 
204.191849 198.0 
204.274094 87.0 
205.184235 132.0 
207.131088 121.0 
211.15181 270.0 
212.16304 349.0 
213.169769 783.0 
215.179214 874.0 
216.184372 123.0 
217.193481 280.0 
221.140198 325.0 
225.16716 130.0 
226.154739 217.0 
227.179092 563.0 
228.137833 122.0 
228.189041 260.0 
229.195511 1225.0 
231.138153 133.0 
235.171555 321.0 
239.180603 296.0 
240.189575 315.0 
241.194611 2525.0 
242.196915 821.0 
243.214218 311.0 
244.212524 147.0 
247.171951 84.0 
249.178864 88.0 
252.063049 116.0 
253.17189 141.0 
253.198196 309.0 
255.16301 220.0 
255.21373 406.0 
256.254944 306.0 
257.236877 174.0 
263.20813 252.0 
267.220093 186.0 
268.210724 240.0 
269.228027 300.0 
271.241913 171.0 
274.185699 252.0 
281.194366 172.0 
281.229004 422.0 
283.236328 340.0 
289.20813 162.0 
294.23941 123.0 
295.239136 375.0 
296.23468 135.0 
297.207214 96.0 
297.260162 701.0 
301.222443 197.0 
307.238007 198.0 
310.259705 145.0 
313.210327 305.0 
313.253387 251.0 
315.233032 149.0 
317.236359 247.0 
318.249573 149.0 
323.275024 172.0 
327.22757 365.0 
327.262451 145.0 
329.253937 359.0 
333.198425 98.0 
337.285797 525.0 
341.206726 177.0 
341.255371 113.0 
345.208801 1001.0 
346.216309 147.0 
346.334106 125.0 
354.253326 169.0 
355.215363 220.0 
355.264862 2643.0 
356.269135 248.0 
357.277954 101.0 
359.232941 203.0 
361.245148 235.0 
363.259766 133.0 
367.261169 956.0 
368.26181 248.0 
369.283844 256.0 
378.320007 95.0 
382.263763 111.0 
395.280914 111.0 
395.344513 200.0 
405.355377 221.0 
407.356873 111.0 
408.299774 151.0 
408.365723 101.0 
422.348206 172.0 
423.318817 247.0 
423.371063 464.0 
424.373566 107.0 
427.28833 139.0 
433.347504 97.0 
434.340637 109.0 
437.343781 181.0 
441.30011 808.0 
450.258087 92.0 
450.356171 111.0 
451.291718 163.0 
451.356842 23119.0 
452.359924 3484.0 
453.34967 449.0 
455.230682 100.0 
455.603638 103.0 
455.787781 105.0 
469.370789 381.0 
520.550537 115.0 
538.325256 102.0 
555.370544 4959.0 
556.369385 1120.0 
559.59259 109.0 
561.014099 135.0 
591.420532 137.0 
1472.290283 335.0 
1847.262085 235.0 
END IONS

BEGIN IONS
TITLE=Scan Number: 220
PEPMASS=267.23099
CHARGE=1+
MSLEVEL=2
FILENAME=A9_RA9_01_2662.mzXML
INSTRUMENT=ion trap
SCANS=220
SMILES=OCC(O)CC(O)\C=C\CCCCCCCCCC=C
INCHIKEY=JFWVTGPGCLTDNM-OUKQBFOZSA-N
77.358246 199.0 
77.694229 125.0 
79.053535 5817.0 
80.059044 737.0 
80.915771 174.0 
81.044044 406.0 
81.069061 5091.0 
81.412949 94.0 
81.526413 107.0 
82.071854 348.0 
83.034866 202.0 
83.050323 209.0 
83.085312 1008.0 
83.492844 202.0 
84.048164 77.0 
84.1464 126.0 
85.063652 311.0 
87.043503 984.0 
89.229568 249.0 
90.476456 87.0 
91.026573 146.0 
91.054207 6991.0 
92.058479 1157.0 
93.06987 2485.0 
94.07135 482.0 
95.047935 1031.0 
95.084763 5059.0 
95.810318 159.0 
96.087646 670.0 
97.063972 657.0 
97.101387 304.0 
100.190506 88.0 
101.061653 200.0 
103.053543 183.0 
104.040611 235.0 
105.042915 3025.0 
105.068871 2606.0 
105.795128 375.0 
106.069611 409.0 
107.086487 2982.0 
108.085144 682.0 
109.10067 1759.0 
110.083641 225.0 
110.104454 220.0 
113.097885 205.0 
116.060112 189.0 
119.064224 804.0 
119.085381 1910.0 
120.062714 189.0 
121.082008 552.0 
121.100502 3411.0 
123.112503 177.0 
125.133423 156.0 
131.088989 360.0 
133.101196 2704.0 
134.10199 143.0 
134.98024 121.0 
135.117065 3352.0 
137.092651 473.0 
137.130447 584.0 
145.101547 437.0 
146.105469 194.0 
147.079727 208.0 
147.115723 3146.0 
149.132721 1521.0 
150.132599 330.0 
151.111282 548.0 
151.146591 266.0 
159.11734 298.0 
161.13121 1415.0 
163.148544 348.0 
166.128342 176.0 
167.140747 404.0 
171.137741 136.0 
173.141464 248.0 
175.145798 1010.0 
176.151306 199.0 
177.166092 102.0 
179.143372 191.0 
185.154739 236.0 
189.16301 475.0 
191.176559 303.0 
192.093674 100.0 
193.157745 195.0 
203.181259 152.0 
205.193726 1003.0 
206.2686 135.0 
219.209427 149.0 
223.205612 121.0 
225.186356 119.0 
231.164108 174.0 
231.209213 1920.0 
232.215256 375.0 
249.2173 625.0 
250.224792 183.0 
267.227264 920.0 
268.239197 115.0 
1153.708496 324.0 
1507.69165 137.0 
1614.755127 223.0 
1700.63269 186.0 
1730.830078 160.0 
1783.006592 267.0 
1903.743774 227.0 
END IONS

BEGIN IONS
TITLE=Scan Number: 221
PEPMASS=493.21799
CHARGE=1+
MSLEVEL=2
FILENAME=A9_RA9_01_2662.mzXML
INSTRUMENT=ion trap
SCANS=221
SMILES=CCC(C)C(=O)OC(C(C)OC(=O)C(\NC(=O)C1=CC=CC(NC=O)=C1O)=C\C)C(CC)C(O)=O
INCHIKEY=JLINBAUQGJKNRS-IUXPMGMMSA-N
75.814072 186.0 
77.558083 330.0 
79.063431 220.0 
79.28315 335.0 
80.049088 887.0 
81.068878 6625.0 
81.981911 147.0 
82.255669 227.0 
83.609734 83.0 
84.087273 199.0 
85.015511 172.0 
85.03006 271.0 
85.064888 81.0 
87.519348 115.0 
88.631409 227.0 
88.835091 258.0 
90.034889 385.0 
90.28904 92.0 
91.028175 147.0 
95.76741 275.0 
98.021507 234.0 
99.079063 483.0 
101.582062 276.0 
103.074326 205.0 
105.045448 150.0 
105.689713 288.0 
105.933479 89.0 
106.018242 143.0 
108.04361 8630.0 
108.507957 176.0 
108.757416 276.0 
109.064133 6899.0 
109.101212 216.0 
109.549751 121.0 
110.04895 132.0 
110.068489 392.0 
110.433784 100.0 
111.074379 338.0 
113.059181 265.0 
113.208336 86.0 
114.666328 300.0 
117.98719 153.0 
118.028198 720.0 
119.678932 251.0 
121.049644 155.0 
122.059547 172.0 
123.078651 186.0 
124.040565 434.0 
124.663017 239.0 
125.954391 169.0 
126.055115 7524.0 
126.67572 206.0 
127.017197 159.0 
127.074699 67265.0 
127.879478 95.0 
128.078857 6204.0 
128.926941 133.0 
129.055252 131.0 
129.127975 117.0 
133.772293 130.0 
134.299698 136.0 
135.624557 164.0 
135.717026 94.0 
135.7771 186.0 
135.805725 338.0 
135.850052 271.0 
136.038574 222772.0 
136.083313 195.0 
136.109116 238.0 
136.190567 138.0 
136.240479 160.0 
136.444321 189.0 
136.645554 138.0 
136.692078 106.0 
137.041595 12040.0 
137.101135 138.0 
137.217514 76.0 
137.302505 162.0 
137.94133 111.0 
137.985138 115.0 
138.041153 220.0 
138.154816 361.0 
138.201736 119.0 
141.094421 281.0 
143.998276 112.0 
144.031921 135.0 
145.088394 258.0 
145.63324 138.0 
145.983032 205.0 
146.022629 13689.0 
146.129654 155.0 
147.02504 1060.0 
147.073578 112.0 
147.889771 88.0 
148.029938 145.0 
148.088913 101.0 
148.467621 109.0 
150.911819 97.0 
154.048843 12953.0 
155.051346 1109.0 
158.056885 303.0 
162.018982 202.0 
162.720657 88.0 
163.083252 267.0 
163.134277 155.0 
163.256653 196.0 
163.386261 136.0 
163.616135 147.0 
163.657639 190.0 
163.835968 203.0 
164.033752 90991.0 
164.19104 83.0 
164.211075 173.0 
164.41333 90.0 
165.037033 5557.0 
166.039612 539.0 
166.138306 82.0 
167.392914 183.0 
168.103653 132.0 
168.272568 126.0 
169.931763 156.0 
173.07341 162.0 
176.072021 351.0 
178.035416 122.0 
180.030685 259.0 
182.045166 2975.0 
182.078857 196.0 
183.07338 182.0 
184.719604 342.0 
186.049698 186.0 
188.316666 262.0 
191.079788 1735.0 
192.061646 132.0 
192.084259 283.0 
201.06189 697.0 
202.049911 521.0 
204.037033 136.0 
207.084503 153.0 
218.990692 354.0 
219.07518 41011.0 
219.202148 104.0 
219.249847 223.0 
220.078522 3480.0 
221.053482 177.0 
221.080673 242.0 
221.406021 83.0 
228.058044 160.0 
229.05954 1615.0 
229.143524 10311.0 
229.889099 120.0 
230.145355 1013.0 
233.101089 74.0 
237.020752 152.0 
240.099594 158.0 
244.919022 99.0 
245.139664 264.0 
246.023788 178.0 
246.419678 251.0 
246.822784 175.0 
247.008392 370.0 
247.071228 28123.0 
247.551422 217.0 
247.582489 118.0 
248.012817 233.0 
248.064667 3234.0 
250.116241 104.0 
250.851608 89.0 
264.045654 205.0 
265.082123 8817.0 
265.516022 97.0 
266.084473 714.0 
386.321289 226.0 
409.13028 99.0 
456.162537 151.0 
457.243683 183.0 
460.049805 180.0 
475.299957 131.0 
477.140747 167.0 
485.798523 79.0 
493.269104 418.0 
1186.263794 325.0 
1421.511963 135.0 
1593.709351 206.0 
1790.776611 116.0 
1845.645142 222.0 
1867.797974 113.0 
1965.618774 461.0 
END IONS

BEGIN IONS
TITLE=Scan Number: 223
PEPMASS=612.35999
CHARGE=1+
MSLEVEL=2
FILENAME=A9_RA9_01_2662.mzXML
INSTRUMENT=ion trap
SCANS=223
SMILES=CCC(C)C1NC(=O)C2CCCN2C(=O)C(CC(O)CO)OC(=O)CCNC(=O)C(C)N(C)C(=O)C(C(C)C)N(C)C1=O
INCHIKEY=DJYDCIUMNXZSBH-UHFFFAOYSA-N
77.855347 142.0 
78.646591 359.0 
81.032455 171.0 
81.435104 148.0 
82.062027 206.0 
83.054359 452.0 
83.96727 119.0 
84.080818 913.0 
84.455421 244.0 
85.025963 274.0 
85.073929 227.0 
86.059998 4840.0 
86.095779 24086.0 
86.526749 234.0 
87.043549 3794.0 
87.099579 1719.0 
88.070343 238.0 
88.85881 85.0 
89.152718 244.0 
90.055519 1844.0 
91.056694 177.0 
92.327354 97.0 
93.06739 206.0 
95.06279 224.0 
96.043098 465.0 
96.08387 379.0 
97.031708 539.0 
97.063782 153.0 
97.08223 371.0 
97.131622 303.0 
98.060577 878.0 
98.097664 1302.0 
99.029518 189.0 
99.046158 131.0 
99.884628 153.0 
100.006973 338.0 
100.038467 10523.0 
100.076355 2022.0 
101.078751 223.0 
102.054832 346.0 
103.087379 853.0 
104.068642 438.0 
106.066719 129.0 
110.059425 101.0 
110.333534 226.0 
111.091072 401.0 
112.074928 1397.0 
112.110451 580.0 
113.068268 430.0 
114.054459 27316.0 
114.091446 7200.0 
114.197807 119.0 
114.356117 216.0 
115.040916 1697.0 
115.057091 1556.0 
115.089554 2011.0 
115.744751 244.0 
115.955032 94.0 
116.042885 407.0 
116.070328 5430.0 
117.046982 158.0 
117.075302 150.0 
120.080528 158.0 
120.226944 88.0 
121.103661 144.0 
121.933235 190.0 
122.546272 285.0 
123.394699 170.0 
124.040176 155.0 
124.075974 3177.0 
124.354385 187.0 
124.769417 93.0 
125.077629 481.0 
125.923271 215.0 
126.05629 896.0 
126.088173 138.0 
126.129036 4688.0 
126.286446 135.0 
127.115433 202.0 
127.784767 243.0 
128.070541 731.0 
128.661743 316.0 
128.873001 335.0 
129.101349 331.0 
129.429962 215.0 
130.042023 268.0 
130.090546 678.0 
132.067871 411.0 
132.101242 2158.0 
133.04805 602.0 
133.108475 278.0 
133.373245 321.0 
134.049973 130.0 
135.077301 103.0 
135.271317 125.0 
135.70607 179.0 
136.036179 194.0 
136.076187 764.0 
136.656677 167.0 
138.031433 234.0 
138.054245 139.0 
138.090622 2620.0 
138.595535 107.0 
139.124496 280.0 
139.193649 170.0 
139.636002 205.0 
139.754562 225.0 
140.072006 220.0 
140.106247 932.0 
140.146133 686.0 
141.052658 675.0 
141.07933 211.0 
141.105637 323.0 
141.23436 107.0 
142.087982 1250.0 
143.086426 414.0 
144.068176 238.0 
145.140732 88.0 
147.113327 153.0 
147.131729 286.0 
147.748169 304.0 
148.064804 182.0 
148.11264 402.0 
148.264221 348.0 
150.057205 665.0 
150.089935 422.0 
150.126419 685.0 
150.212143 362.0 
152.069977 4880.0 
152.104828 142.0 
152.134888 113.0 
152.225601 159.0 
153.075562 868.0 
153.10202 393.0 
153.135498 155.0 
153.276276 288.0 
154.086166 308.0 
154.113892 1498.0 
155.081589 566.0 
155.115967 206.0 
156.062683 228.0 
156.100571 2133.0 
156.441498 347.0 
156.700882 82.0 
157.047623 668.0 
157.096786 39390.0 
157.295807 144.0 
157.420853 172.0 
157.489746 105.0 
158.028473 113.0 
158.10199 4047.0 
158.230621 111.0 
158.268478 115.0 
158.32756 99.0 
158.371704 218.0 
158.488403 130.0 
158.630325 202.0 
159.103714 179.0 
159.534897 87.0 
161.179214 196.0 
162.075851 4692.0 
162.457138 369.0 
162.620697 160.0 
163.082474 615.0 
164.140305 125.0 
164.510956 133.0 
165.097137 320.0 
165.14035 586.0 
166.085922 15334.0 
166.123993 1547.0 
166.4888 85.0 
166.643967 77.0 
166.826126 88.0 
166.858536 196.0 
167.088791 2908.0 
167.154922 1235.0 
168.070969 393.0 
168.101639 27887.0 
168.812775 101.0 
168.83252 181.0 
169.050888 658.0 
169.10585 2154.0 
169.16922 349.0 
169.264618 96.0 
170.080292 485.0 
170.108826 385.0 
171.063248 1194.0 
171.284515 191.0 
172.062057 176.0 
172.095734 924.0 
172.130676 129.0 
173.091278 234.0 
174.074905 312.0 
174.106567 225.0 
174.807602 95.0 
175.058502 3598.0 
175.106888 10300.0 
175.650482 82.0 
175.899811 284.0 
176.064148 734.0 
176.112152 886.0 
177.0578 249.0 
177.109985 402.0 
177.512695 78.0 
178.072968 146.0 
178.101624 146.0 
178.436646 269.0 
179.116531 320.0 
179.152847 84.0 
180.139862 332.0 
180.16568 109.0 
180.522934 127.0 
180.709213 108.0 
180.877075 131.0 
181.108536 1847.0 
181.144287 113.0 
181.175079 199.0 
181.476608 120.0 
182.027328 126.0 
182.081558 685.0 
182.117218 1233.0 
182.174911 104.0 
182.234879 158.0 
182.378616 190.0 
182.589783 276.0 
182.940872 195.0 
183.071518 283.0 
183.115463 1908.0 
183.149719 27899.0 
183.221085 194.0 
183.301071 116.0 
184.052795 354.0 
184.09639 30046.0 
184.151733 3663.0 
185.09816 3528.0 
185.157364 858.0 
185.227478 107.0 
186.075317 1793.0 
186.11142 449.0 
186.588348 87.0 
187.060791 5441.0 
187.110397 138.0 
188.063293 839.0 
188.91925 212.0 
189.670135 74.0 
190.562057 171.0 
191.120422 366.0 
191.256592 200.0 
193.089828 167.0 
194.033325 183.0 
194.079956 8084.0 
194.130859 346.0 
194.276779 271.0 
195.056778 230.0 
195.081253 368.0 
195.114456 416.0 
195.155777 931.0 
196.063797 179.0 
196.092606 378.0 
196.135864 427.0 
197.164093 1115.0 
197.593765 290.0 
198.172836 346.0 
198.229263 97.0 
199.049576 200.0 
199.143677 21538.0 
199.247025 82.0 
199.705688 141.0 
199.800598 86.0 
200.088654 238.0 
200.14856 1241.0 
201.122421 265.0 
201.554108 134.0 
201.633987 322.0 
201.782379 202.0 
201.988647 87.0 
202.066727 581.0 
202.10611 17503.0 
202.598785 80.0 
203.108887 3008.0 
203.499252 87.0 
203.603073 103.0 
203.916092 291.0 
203.974289 122.0 
204.030273 543.0 
204.085587 68672.0 
204.168564 131.0 
204.406982 78.0 
205.089645 5163.0 
205.13353 303.0 
205.193436 108.0 
205.699829 125.0 
206.08699 202.0 
206.140121 543.0 
206.260071 84.0 
206.662399 185.0 
206.747559 247.0 
206.784027 192.0 
206.919312 92.0 
207.114243 223.0 
207.148758 132.0 
208.39859 169.0 
208.958633 95.0 
209.12558 651.0 
209.161407 1014.0 
209.661942 191.0 
210.149094 15442.0 
210.417114 120.0 
211.104965 1438.0 
211.143356 4129.0 
211.781662 206.0 
211.935913 243.0 
211.975983 375.0 
212.011978 466.0 
212.09169 90354.0 
212.149292 804.0 
212.782883 98.0 
212.841415 103.0 
213.056747 511.0 
213.094788 8674.0 
213.134979 294.0 
213.334045 131.0 
213.431778 177.0 
214.098984 3023.0 
214.218918 348.0 
214.54924 133.0 
214.822968 110.0 
215.136185 219.0 
215.91127 125.0 
216.08815 338.0 
216.124893 591.0 
218.104492 145.0 
219.129776 294.0 
220.074692 197.0 
221.11409 425.0 
221.161514 177.0 
222.099487 121.0 
222.371201 278.0 
223.137589 152.0 
223.179291 256.0 
224.176682 207.0 
224.458984 223.0 
225.159836 1605.0 
226.104889 3107.0 
226.163773 254.0 
227.107346 225.0 
227.140503 203.0 
227.176346 568.0 
227.512848 220.0 
227.68071 116.0 
228.119095 175.0 
228.158127 491.0 
228.792175 102.0 
228.988037 219.0 
229.112671 512.0 
229.595657 125.0 
229.877106 217.0 
230.103302 11063.0 
230.159134 197.0 
231.109192 1102.0 
232.045853 204.0 
232.076141 763.0 
232.12178 174.0 
232.145203 356.0 
232.172028 341.0 
234.445541 212.0 
235.355011 102.0 
236.124313 94.0 
237.077316 294.0 
237.121735 175.0 
237.158249 207.0 
237.956436 305.0 
238.106934 2674.0 
239.063187 192.0 
239.112869 666.0 
240.090073 451.0 
240.148224 184.0 
241.102356 314.0 
242.188263 171.0 
243.038986 218.0 
243.129547 187.0 
243.169067 329.0 
244.171646 174.0 
245.039963 83.0 
245.116119 195.0 
246.13913 146.0 
246.731308 253.0 
247.090286 83.0 
247.151581 362.0 
247.296997 328.0 
247.339325 124.0 
248.145599 85.0 
248.454697 155.0 
249.163406 835.0 
249.19838 118.0 
249.235992 140.0 
249.311783 126.0 
250.740402 115.0 
252.142609 198.0 
253.11908 311.0 
254.099503 556.0 
254.150116 142.0 
254.220505 136.0 
254.948181 148.0 
255.034546 101.0 
255.134262 9065.0 
255.300186 115.0 
255.325577 175.0 
256.134186 1089.0 
256.325714 94.0 
256.616516 189.0 
256.656311 120.0 
256.696838 122.0 
256.979309 86.0 
257.040863 85.0 
257.147705 317.0 
257.872681 159.0 
258.094727 527.0 
259.125916 116.0 
259.153809 154.0 
259.347626 143.0 
261.146851 1180.0 
262.170746 179.0 
262.447235 339.0 
263.141266 278.0 
263.178528 250.0 
263.215515 684.0 
265.065948 287.0 
265.119965 689.0 
266.105835 694.0 
266.20932 70.0 
267.144348 150.0 
268.098053 198.0 
268.145203 169.0 
268.412384 221.0 
269.131866 280.0 
269.149872 349.0 
270.147156 220.0 
270.179047 160.0 
270.317169 209.0 
270.900757 114.0 
270.973267 316.0 
271.127197 2869.0 
271.167053 387.0 
271.341339 84.0 
272.067566 217.0 
272.108521 473.0 
272.145477 1165.0 
272.559326 106.0 
272.678497 231.0 
273.144196 8626.0 
274.150574 997.0 
277.037628 174.0 
278.032867 194.0 
278.224731 81.0 
279.090668 226.0 
279.169495 2767.0 
279.931519 273.0 
280.102783 248.0 
280.174255 231.0 
280.23114 459.0 
281.753845 124.0 
282.131378 181.0 
282.835144 246.0 
283.131195 2351.0 
283.198425 198.0 
283.714264 274.0 
283.806488 286.0 
284.111298 14672.0 
284.505707 185.0 
284.890167 239.0 
285.071686 259.0 
285.118195 1728.0 
286.109406 589.0 
287.123535 313.0 
287.210907 343.0 
288.151398 306.0 
288.188782 156.0 
288.224213 102.0 
288.31662 93.0 
288.808838 110.0 
288.902832 195.0 
289.048431 549.0 
289.138855 114995.0 
289.206299 335.0 
289.251312 187.0 
289.30127 279.0 
289.453064 81.0 
290.142242 12329.0 
290.425446 66.0 
290.693237 86.0 
290.780151 85.0 
291.095398 234.0 
291.149567 1206.0 
291.406403 216.0 
291.926758 114.0 
292.075317 205.0 
292.108429 175.0 
292.511017 89.0 
294.078674 279.0 
295.019989 135.0 
295.133545 214.0 
295.167175 126.0 
296.200989 1313.0 
297.069794 192.0 
297.181305 9794.0 
298.18042 1142.0 
298.696075 129.0 
299.050903 82.0 
299.14563 215.0 
299.967133 324.0 
300.152649 1970.0 
300.996094 162.0 
301.050934 183.0 
301.138489 41306.0 
301.534393 115.0 
301.796356 267.0 
302.141937 6047.0 
302.265625 91.0 
303.1185 90.0 
303.153931 309.0 
304.081604 95.0 
306.220947 251.0 
307.151367 1291.0 
307.200714 1225.0 
308.181854 114.0 
310.1633 181.0 
310.219391 198.0 
311.119324 446.0 
312.094025 167.0 
312.123688 129.0 
312.28299 257.0 
313.069031 160.0 
313.138367 154.0 
313.383789 134.0 
313.974518 140.0 
314.416168 220.0 
315.150574 693.0 
315.186127 526.0 
317.008057 214.0 
317.130524 484.0 
317.170959 3113.0 
318.172974 647.0 
319.989868 136.0 
320.185852 152.0 
321.318359 142.0 
323.420258 432.0 
324.228088 5326.0 
325.175507 2783.0 
325.232178 1464.0 
326.182678 200.0 
327.181244 140.0 
328.226898 92.0 
329.114258 489.0 
329.75412 172.0 
330.096863 120.0 
330.143433 80.0 
336.150452 214.0 
337.185364 172.0 
337.844818 200.0 
339.180389 947.0 
340.149689 513.0 
340.188904 5557.0 
341.193481 1360.0 
341.699646 196.0 
342.196167 807.0 
343.187653 1755.0 
344.194122 382.0 
344.334442 167.0 
344.72287 213.0 
346.179169 112.0 
346.979706 207.0 
348.253448 202.0 
349.895447 168.0 
350.16568 226.0 
350.975342 153.0 
351.157806 405.0 
351.193604 1344.0 
351.660492 76.0 
352.184875 491.0 
353.158905 154.0 
354.079346 139.0 
354.241669 178.0 
355.042511 114.0 
355.268829 94.0 
356.153564 114.0 
356.18158 144.0 
356.214233 1285.0 
357.210602 846.0 
357.638611 133.0 
357.738831 89.0 
358.130585 642.0 
358.198578 40161.0 
358.7771 255.0 
359.072449 136.0 
359.200531 6064.0 
359.534027 190.0 
360.204895 487.0 
361.671021 99.0 
363.235992 163.0 
364.276459 208.0 
365.069427 156.0 
365.327759 183.0 
366.311035 173.0 
366.815491 102.0 
367.195251 191.0 
367.236633 166.0 
367.376678 79.0 
368.219788 10626.0 
368.374115 131.0 
369.140656 131.0 
369.22113 2308.0 
369.454437 138.0 
370.196991 2165.0 
371.197388 391.0 
371.35791 215.0 
371.47644 105.0 
371.750305 152.0 
372.205444 287.0 
372.939087 204.0 
374.735138 187.0 
375.190674 68.0 
375.263336 225.0 
376.614777 118.0 
378.128784 208.0 
378.20932 195.0 
378.509491 309.0 
379.176636 315.0 
380.187958 321.0 
380.269104 176.0 
382.193512 241.0 
382.228455 194.0 
384.189911 581.0 
384.296417 83.0 
384.476837 186.0 
384.705933 110.0 
385.174927 830.0 
385.210114 3074.0 
385.262146 266.0 
385.312775 212.0 
385.515717 95.0 
385.703278 282.0 
385.860443 100.0 
386.047089 237.0 
386.087097 685.0 
386.191956 112638.0 
386.296173 117.0 
386.727631 280.0 
386.851776 249.0 
387.124908 429.0 
387.196106 16672.0 
387.317108 184.0 
387.79068 70.0 
388.201874 2296.0 
388.268341 143.0 
388.330292 96.0 
388.945648 80.0 
389.664093 166.0 
389.848846 77.0 
391.60788 114.0 
392.213837 183.0 
392.251312 235.0 
394.254333 80.0 
395.248108 237.0 
395.690399 139.0 
396.147003 276.0 
396.2117 2683.0 
397.213501 927.0 
397.259735 139.0 
397.348053 166.0 
398.210938 211.0 
399.732819 183.0 
400.266907 161.0 
400.763062 240.0 
401.140198 137.0 
402.053375 264.0 
402.13559 130.0 
402.224915 5197.0 
402.398956 112.0 
403.22226 613.0 
403.437561 137.0 
404.161774 345.0 
404.199371 219.0 
405.188049 156.0 
406.119019 119.0 
406.205505 181.0 
406.917725 106.0 
409.283264 951.0 
410.233856 397.0 
410.26712 331.0 
411.239197 179.0 
411.776428 89.0 
412.112213 231.0 
412.273163 122.0 
414.140198 70.0 
414.221924 8697.0 
414.386353 121.0 
414.798187 72.0 
415.168335 249.0 
415.224152 1723.0 
416.19635 99.0 
416.898407 183.0 
417.807587 175.0 
420.255463 684.0 
421.246246 333.0 
422.326691 157.0 
423.993317 137.0 
424.20636 1289.0 
424.737274 245.0 
426.233856 223.0 
427.470551 171.0 
428.271301 194.0 
429.24588 296.0 
431.877167 254.0 
435.260345 335.0 
435.612976 305.0 
437.274292 248.0 
437.625153 135.0 
438.141327 249.0 
438.260132 6072.0 
439.139801 323.0 
439.27002 1128.0 
439.754364 236.0 
440.227875 194.0 
440.273224 179.0 
440.574646 81.0 
441.254059 259.0 
442.200562 180.0 
443.426727 124.0 
446.076385 74.0 
447.631561 158.0 
448.286285 619.0 
449.43692 255.0 
449.949432 77.0 
450.363586 217.0 
450.843445 96.0 
451.917786 291.0 
452.011383 133.0 
453.057251 182.0 
453.165039 176.0 
453.268982 20810.0 
453.401245 489.0 
454.068665 89.0 
454.210449 220.0 
454.273773 5865.0 
454.374847 92.0 
454.464264 152.0 
455.158356 354.0 
455.277008 1099.0 
456.271027 2975.0 
456.821625 63.0 
457.268341 608.0 
457.409576 69.0 
457.469086 71.0 
459.499847 117.0 
463.189545 283.0 
463.243835 155.0 
463.683777 188.0 
464.624268 237.0 
464.889587 129.0 
465.271942 408.0 
466.100739 109.0 
466.195648 153.0 
466.245667 95.0 
466.295563 110.0 
466.735077 173.0 
466.995148 117.0 
467.278046 285.0 
468.039703 141.0 
468.203064 126.0 
468.397949 92.0 
469.267212 174.0 
469.490387 100.0 
469.713165 84.0 
470.365082 182.0 
470.48587 212.0 
470.544525 194.0 
471.05954 186.0 
471.132141 398.0 
471.165588 485.0 
471.280396 121997.0 
471.375061 285.0 
471.41629 418.0 
471.509735 127.0 
471.644745 82.0 
471.71344 77.0 
472.130188 116.0 
472.177368 198.0 
472.225098 464.0 
472.282532 21260.0 
472.36673 218.0 
472.597046 186.0 
473.026428 192.0 
473.212799 247.0 
473.286743 2557.0 
473.462677 126.0 
473.924438 87.0 
474.024994 89.0 
474.137329 75.0 
474.779205 158.0 
475.383636 341.0 
476.205597 119.0 
478.130463 153.0 
480.205261 98.0 
480.286377 459.0 
481.264008 10816.0 
482.099182 110.0 
482.268341 2589.0 
483.2453 143.0 
483.279785 504.0 
483.316071 295.0 
485.295135 117.0 
485.711395 86.0 
487.08551 175.0 
487.765106 161.0 
489.60202 156.0 
492.047089 101.0 
492.268951 721.0 
493.273651 485.0 
493.351532 203.0 
494.484222 111.0 
494.652191 76.0 
494.733826 81.0 
494.793549 138.0 
495.282623 148.0 
495.563721 110.0 
496.022125 135.0 
496.100311 84.0 
496.273712 269.0 
496.776062 103.0 
497.017944 150.0 
497.323883 138.0 
497.615234 113.0 
497.694305 96.0 
498.118011 162.0 
498.280365 558.0 
498.402313 79.0 
498.518524 106.0 
498.704285 217.0 
498.802246 71.0 
498.907257 98.0 
499.084595 732.0 
499.276062 206185.0 
499.398621 376.0 
499.526306 95.0 
499.778076 121.0 
499.868439 164.0 
500.058716 170.0 
500.14035 243.0 
500.279419 37776.0 
500.422699 85.0 
500.534332 264.0 
500.696594 450.0 
500.853088 131.0 
500.940125 229.0 
501.157379 192.0 
501.236328 108.0 
501.285736 2960.0 
501.444275 129.0 
501.672974 73.0 
502.228577 232.0 
502.565277 84.0 
502.796143 269.0 
503.239685 250.0 
503.39328 285.0 
503.469635 181.0 
503.621307 182.0 
503.851959 134.0 
505.370026 116.0 
507.259766 121.0 
508.298828 158.0 
509.298492 2767.0 
510.280243 644.0 
511.271454 173.0 
511.934967 167.0 
513.287537 313.0 
515.320374 356.0 
515.416199 139.0 
516.297852 336.0 
520.289978 73.0 
521.388306 124.0 
523.309021 321.0 
523.569214 179.0 
523.856445 233.0 
524.326904 136.0 
525.1297 191.0 
526.806396 82.0 
527.211609 256.0 
527.308838 9099.0 
527.832947 77.0 
528.300964 1713.0 
529.000793 157.0 
529.321472 118.0 
529.760803 144.0 
531.838318 74.0 
537.287109 824.0 
538.28717 217.0 
543.295288 358.0 
545.022644 268.0 
545.713867 209.0 
546.092163 159.0 
550.313538 159.0 
550.356079 772.0 
550.764893 122.0 
551.356445 177.0 
551.439087 94.0 
553.323547 239.0 
555.302612 1069.0 
556.596497 87.0 
563.675476 81.0 
565.350891 164.0 
566.350098 597.0 
567.335754 105.0 
568.10199 356.0 
568.299316 103.0 
568.367615 7052.0 
568.428833 201.0 
569.380676 1645.0 
569.601746 215.0 
570.373657 479.0 
572.653687 131.0 
572.92395 173.0 
579.483704 77.0 
581.309265 139.0 
581.8349 174.0 
582.330994 206.0 
583.935303 86.0 
584.108154 100.0 
584.211182 151.0 
584.36438 14541.0 
584.866699 182.0 
585.188354 126.0 
585.287354 107.0 
585.365112 3159.0 
586.371338 330.0 
587.260193 132.0 
587.947876 186.0 
589.121887 156.0 
589.65863 105.0 
590.178955 90.0 
591.747681 114.0 
592.401794 168.0 
592.639832 97.0 
593.458069 112.0 
594.189392 182.0 
594.272949 416.0 
594.347534 14308.0 
594.436218 204.0 
595.05896 180.0 
595.351624 3749.0 
596.358459 313.0 
597.68573 212.0 
598.474365 152.0 
602.351135 91.0 
603.983948 92.0 
605.259827 143.0 
605.481506 96.0 
606.104126 213.0 
607.021729 124.0 
607.177429 169.0 
607.401001 162.0 
607.488403 100.0 
607.680176 181.0 
607.7724 201.0 
607.893311 155.0 
607.942505 125.0 
607.991272 88.0 
608.315308 98.0 
608.395752 91.0 
608.787903 76.0 
609.646301 100.0 
609.684204 222.0 
609.992188 315.0 
610.20636 114.0 
610.328674 368.0 
610.438354 216.0 
610.522339 103.0 
610.606506 350.0 
610.661804 98.0 
610.735474 202.0 
610.788086 95.0 
610.837646 263.0 
610.910156 260.0 
611.034851 129.0 
611.122925 157.0 
611.153442 293.0 
611.190674 342.0 
611.244934 180.0 
611.315308 270.0 
611.388489 259.0 
611.606934 233.0 
611.678101 84.0 
611.734985 409.0 
611.802429 127.0 
611.866577 123.0 
611.940369 427.0 
612.071716 391.0 
612.131958 1109.0 
612.207947 1563.0 
612.359741 495012.0 
612.460999 437.0 
612.508301 640.0 
612.624512 152.0 
612.717346 344.0 
612.788208 547.0 
612.946594 436.0 
613.039001 349.0 
613.102661 212.0 
613.136047 343.0 
613.189392 67.0 
613.363281 112665.0 
613.510742 173.0 
613.586487 311.0 
613.67395 187.0 
613.763367 98.0 
613.852539 186.0 
613.8974 472.0 
614.041992 888.0 
614.364258 9929.0 
614.586914 112.0 
614.891113 114.0 
615.372559 162.0 
615.592651 137.0 
615.744202 134.0 
616.000977 204.0 
616.343384 207.0 
616.421631 181.0 
616.581543 107.0 
616.618347 138.0 
616.676636 117.0 
616.715942 293.0 
616.852295 175.0 
616.915649 228.0 
617.010681 574.0 
617.477661 206.0 
617.658936 233.0 
617.889893 130.0 
617.988281 151.0 
618.091003 73.0 
619.018433 103.0 
619.885864 76.0 
624.049194 77.0 
629.218262 73.0 
630.252502 76.0 
630.483398 72.0 
647.430115 113.0 
668.920898 89.0 
759.06665 89.0 
759.70929 96.0 
815.228271 81.0 
819.532776 157.0 
877.949158 180.0 
919.261475 211.0 
985.321411 196.0 
988.882019 161.0 
1013.681519 100.0 
1074.673828 79.0 
1480.465332 248.0 
1486.022461 69.0 
1598.629028 308.0 
1625.775024 81.0 
1824.289062 200.0 
1896.577393 210.0 
END IONS

BEGIN IONS
TITLE=Scan Number: 225
PEPMASS=603.22803
CHARGE=1+
MSLEVEL=2
FILENAME=A9_RA9_01_2662.mzXML
INSTRUMENT=ion trap
SCANS=225
SMILES=OCCC(=C)C(=O)OCC1OCC(OC(=O)C(=C)CCO[C@@H]2O[C@H](COC(=O)C(=C)CCO)[C@@H](O)[C@H](O)[C@H]2O)C(O)C1O
INCHIKEY=JGCNXPIMJMUVKE-OVYOWKQZSA-N
81.031906 537.0 
83.011505 291.0 
83.048553 149.0 
85.026665 1076.0 
86.033295 190.0 
91.039383 206.0 
97.032448 222.0 
99.043259 9692.0 
99.10836 88.0 
100.048851 638.0 
102.057625 93.0 
103.040817 465.0 
109.029541 307.0 
111.042221 798.0 
115.036469 198.0 
117.053848 550.0 
121.06282 180.0 
127.038055 528.0 
129.054596 1439.0 
130.038773 195.0 
145.03093 239.0 
145.051285 264.0 
147.06369 402.0 
152.987289 104.0 
159.070374 321.0 
165.08345 306.0 
197.082611 297.0 
211.063126 162.0 
227.099777 280.0 
231.084335 108.0 
234.057251 185.0 
243.0784 729.0 
245.09697 1061.0 
261.099579 502.0 
262.110474 160.0 
263.11087 179.0 
273.093964 99.0 
277.09137 89.0 
311.128723 189.0 
314.146332 140.0 
332.156555 214.0 
335.109497 96.0 
343.141907 246.0 
351.094025 120.0 
353.121521 273.0 
371.135345 295.0 
401.133759 223.0 
451.152008 160.0 
454.820709 155.0 
459.190216 224.0 
487.183594 82.0 
488.202332 196.0 
567.360718 113.0 
603.14801 137.0 
603.217834 141.0 
1128.687866 293.0 
1365.40332 226.0 
1920.63916 354.0 
END IONS

BEGIN IONS
TITLE=Scan Number: 226
PEPMASS=638.26599
CHARGE=1+
MSLEVEL=2
FILENAME=A9_RA9_01_2662.mzXML
INSTRUMENT=ion trap
SCANS=226
SMILES=OCCC(=C)C(=O)OCC1OCC(OC(=O)C(=C)CCO[C@@H]2O[C@H](COC(=O)C(=C)CCO)[C@@H](O)[C@H](O)[C@H]2O)C(O)C1O
INCHIKEY=JGCNXPIMJMUVKE-OVYOWKQZSA-N
82.036232 125.0 
83.049683 200.0 
85.02916 209.0 
91.036606 201.0 
99.0439 3591.0 
100.045471 225.0 
101.05957 246.0 
109.026817 149.0 
111.040886 132.0 
113.057259 185.0 
117.056168 258.0 
127.038345 380.0 
129.057907 225.0 
141.056671 199.0 
147.047272 268.0 
148.062866 153.0 
165.072174 471.0 
166.076767 201.0 
167.071472 115.0 
193.041229 168.0 
207.048538 236.0 
208.056595 254.0 
221.026413 165.0 
227.0923 112.0 
245.102448 298.0 
255.085678 131.0 
263.107361 978.0 
275.044891 130.0 
288.111359 287.0 
301.052094 175.0 
323.111603 136.0 
330.070007 187.0 
330.104889 379.0 
335.063995 365.0 
343.138245 612.0 
361.151794 963.0 
373.183472 189.0 
487.173737 244.0 
497.086578 97.0 
603.270447 289.0 
638.710938 170.0 
733.825439 148.0 
741.731506 162.0 
END IONS

BEGIN IONS
TITLE=Scan Number: 227
PEPMASS=245.117
CHARGE=1+
MSLEVEL=2
FILENAME=C4_GC4_01_2696.mzXML
INSTRUMENT=ion trap
SCANS=227
SMILES=COC1=C(CC=C(C)C)C=C2C=CC(=O)OC2=C1
INCHIKEY=RSZDAYHEZSRVHS-UHFFFAOYSA-N
78.048187 131.0 
79.054024 284.0 
79.791824 144.0 
80.064827 143.0 
90.049431 437.0 
91.051933 668.0 
92.91246 107.0 
95.049286 212.0 
102.046875 400.0 
103.054695 191.0 
104.058891 483.0 
105.038467 495.0 
106.033791 141.0 
106.072281 108.0 
115.051849 1297.0 
116.059479 367.0 
117.071342 287.0 
118.037987 319.0 
118.074333 107.0 
118.386253 130.0 
119.048172 697.0 
121.060875 721.0 
123.046715 144.0 
125.471642 187.0 
128.059998 779.0 
129.069427 692.0 
131.048111 5237.0 
131.14653 83.0 
132.033218 179.0 
132.052872 583.0 
133.028275 269.0 
133.063751 533.0 
133.089493 95.0 
134.035782 322.0 
141.066269 1951.0 
141.878555 218.0 
142.076782 1119.0 
142.150864 154.0 
143.050278 1390.0 
143.090652 248.0 
144.054626 1092.0 
145.065384 429.0 
146.039337 1472.0 
147.018951 270.0 
147.046677 800.0 
147.082428 169.0 
148.052551 173.0 
152.058701 224.0 
153.069168 286.0 
154.047287 186.0 
154.075439 121.0 
155.058426 141.0 
155.087906 431.0 
157.067398 207.0 
158.059341 160.0 
158.101044 134.0 
159.045181 661.0 
159.079697 2173.0 
160.049103 111.0 
160.08461 259.0 
161.034515 168.0 
161.05957 1251.0 
162.029633 528.0 
162.072906 366.0 
163.042709 159.0 
164.039429 178.0 
167.091492 371.0 
168.052521 150.0 
168.614304 106.0 
169.019318 193.0 
169.069901 393.0 
169.095184 158.0 
170.069809 102.0 
170.101715 133.0 
171.041473 245.0 
171.077759 591.0 
172.049515 178.0 
172.08847 128.0 
173.101303 275.0 
174.064484 206.0 
174.094757 338.0 
175.038834 1973.0 
175.076309 174.0 
176.045395 348.0 
177.052902 2997.0 
177.156693 95.0 
177.383484 214.0 
178.021667 220.0 
181.065689 114.0 
182.078369 208.0 
183.049011 154.0 
183.081055 551.0 
184.083221 114.0 
185.039429 163.0 
185.061646 497.0 
185.091354 272.0 
187.039093 6655.0 
187.075302 593.0 
188.044693 412.0 
189.054733 1922.0 
190.058014 477.0 
191.075775 146.0 
194.315109 99.0 
197.058319 642.0 
198.066422 715.0 
199.076736 1348.0 
200.046906 444.0 
201.060196 847.0 
201.091568 364.0 
202.052567 146.0 
203.074905 189.0 
205.048599 272.0 
211.07486 648.0 
212.078033 116.0 
213.014862 152.0 
213.053574 513.0 
213.090546 2172.0 
214.022171 126.0 
214.06546 286.0 
214.088333 195.0 
215.075287 1275.0 
216.075134 118.0 
218.120712 166.0 
227.071884 355.0 
227.105545 111.0 
229.08757 1950.0 
230.09436 1010.0 
238.688538 119.0 
241.093735 128.0 
242.325684 164.0 
243.972412 112.0 
244.072037 146.0 
245.027145 135.0 
245.117584 52444.0 
245.387497 205.0 
246.121262 3184.0 
246.289841 97.0 
248.068253 127.0 
248.673279 135.0 
1516.610718 294.0 
1960.781372 97.0 
1965.286133 229.0 
END IONS

BEGIN IONS
TITLE=Scan Number: 228
PEPMASS=273.112
CHARGE=1+
MSLEVEL=2
FILENAME=C4_GC4_01_2696.mzXML
INSTRUMENT=ion trap
SCANS=228
SMILES=COC1=CC(O)=C(C(=O)CCC2=CC=CC=C2)C(O)=C1
INCHIKEY=MDMCODCJMHTFIZ-UHFFFAOYSA-N
71.65464 252.0 
77.041267 693.0 
79.020508 458.0 
79.054298 1907.0 
79.111137 267.0 
79.571266 286.0 
79.834488 101.0 
80.026459 233.0 
81.034264 868.0 
81.068665 53.0 
82.039001 156.0 
82.674736 354.0 
84.443047 108.0 
87.483696 125.0 
87.55806 196.0 
87.744141 185.0 
89.039497 386.0 
90.144951 164.0 
90.816101 71.0 
90.902092 111.0 
91.00486 216.0 
91.054703 131612.0 
91.101883 220.0 
91.194481 252.0 
91.222092 178.0 
91.267677 255.0 
91.310188 56.0 
91.580948 292.0 
91.713531 106.0 
92.058289 8445.0 
92.849762 115.0 
93.034225 267.0 
93.059555 434.0 
93.324928 75.0 
93.471291 66.0 
95.048668 1715.0 
95.134621 130.0 
96.361099 189.0 
96.51667 230.0 
97.068268 233.0 
97.166695 109.0 
97.334831 83.0 
98.039452 177.0 
99.044197 993.0 
100.040077 131.0 
101.291786 229.0 
103.054474 2292.0 
103.278793 73.0 
105.010231 156.0 
105.045891 1932.0 
105.070442 32529.0 
105.803772 58.0 
105.916092 129.0 
106.050705 127.0 
106.075066 2271.0 
106.117371 168.0 
107.051567 544.0 
108.027489 216.0 
108.057617 157.0 
109.065872 755.0 
109.986 228.0 
110.038414 364.0 
111.044319 1117.0 
113.013313 123.0 
115.054939 9245.0 
115.108376 82.0 
116.059746 1592.0 
117.048912 266.0 
119.012947 118.0 
120.015755 178.0 
121.039436 454.0 
121.066002 558.0 
123.042641 613.0 
125.025803 903.0 
125.059448 594.0 
126.030106 338.0 
127.032837 539.0 
128.061844 1229.0 
129.070541 2694.0 
130.067734 157.0 
133.018723 165.0 
133.065002 1876.0 
134.036606 695.0 
135.040131 361.0 
137.024094 409.0 
137.060349 1605.0 
138.065277 205.0 
139.042023 154.0 
140.09761 179.0 
140.859726 113.0 
141.055267 13450.0 
141.321915 71.0 
141.344681 100.0 
142.060013 678.0 
143.049484 166.0 
143.249878 175.0 
146.226227 155.0 
149.024475 337.0 
149.057755 680.0 
151.052109 260.0 
151.077515 162.0 
151.284927 497.0 
152.009186 348.0 
152.060379 1375.0 
152.219574 199.0 
153.027557 135.0 
153.055099 5222.0 
153.097992 71.0 
154.05722 476.0 
154.078522 352.0 
155.00618 276.0 
155.059464 682.0 
155.083542 442.0 
156.061768 592.0 
156.088806 129.0 
156.252609 65.0 
157.063766 6673.0 
158.071991 822.0 
158.340378 135.0 
162.031754 683.0 
162.068787 112.0 
163.035187 150.0 
164.219238 73.0 
164.803955 110.0 
165.058868 3491.0 
165.069046 3007.0 
166.07782 783.0 
166.10701 149.0 
166.993774 196.0 
167.034973 8352.0 
167.086853 2263.0 
167.401794 145.0 
167.901276 106.0 
168.037354 606.0 
168.084732 261.0 
168.835098 226.0 
168.988022 159.0 
169.050766 6943.0 
169.097702 228.0 
169.416031 76.0 
169.438446 66.0 
170.01561 59.0 
170.05423 814.0 
171.041779 155.0 
171.624603 77.0 
175.078323 208.0 
176.064346 273.0 
176.986328 122.0 
177.056244 4444.0 
177.134491 225.0 
178.077133 996.0 
179.083893 665.0 
179.909851 103.0 
180.023041 217.0 
181.066315 563.0 
181.10408 189.0 
184.08931 256.0 
185.75798 102.0 
187.07457 163.0 
189.070602 176.0 
189.247726 64.0 
193.462189 198.0 
194.072739 1075.0 
195.071472 2282.0 
196.070267 138.0 
196.092117 319.0 
197.03035 197.0 
197.058151 600.0 
197.098755 190.0 
199.1138 502.0 
203.022751 147.0 
205.068802 144.0 
209.100266 795.0 
210.094757 162.0 
211.088394 236.0 
212.090225 220.0 
213.088394 285.0 
213.562912 97.0 
214.095001 333.0 
223.075226 1260.0 
224.719818 88.0 
226.840515 88.0 
226.934036 64.0 
227.077957 327.0 
227.10849 2713.0 
227.191925 143.0 
227.647583 222.0 
228.106155 379.0 
229.097824 323.0 
229.128098 246.0 
230.992615 122.0 
231.103455 1559.0 
232.105469 215.0 
237.089874 896.0 
240.083115 94.0 
241.078751 140.0 
255.102615 11171.0 
255.224487 115.0 
256.104462 998.0 
257.926056 98.0 
272.891357 56.0 
272.954041 266.0 
272.997681 229.0 
273.114471 12212.0 
273.486694 111.0 
274.11673 1544.0 
288.064178 157.0 
311.061584 449.0 
312.040924 293.0 
314.182037 78.0 
329.072662 1118.0 
330.081055 156.0 
333.418091 82.0 
336.457214 53.0 
347.081329 551.0 
348.303009 65.0 
349.605286 60.0 
389.069824 256.0 
941.325867 100.0 
1561.973633 318.0 
1565.759644 299.0 
1590.143555 119.0 
1701.640015 95.0 
1843.074707 218.0 
1874.277222 210.0 
END IONS

BEGIN IONS
TITLE=Scan Number: 229
PEPMASS=255.101
CHARGE=1+
MSLEVEL=2
FILENAME=C4_GC4_01_2696.mzXML
INSTRUMENT=ion trap
SCANS=229
SMILES=COC1=CC(O)=C(C(=O)CCC2=CC=CC=C2)C(O)=C1
INCHIKEY=MDMCODCJMHTFIZ-UHFFFAOYSA-N
89.041153 226.0 
115.055443 647.0 
117.054573 165.0 
128.065323 223.0 
131.046982 163.0 
143.031082 183.0 
143.048767 578.0 
144.059509 163.0 
171.044724 3422.0 
172.047958 331.0 
182.332718 108.0 
199.038986 4149.0 
200.041672 182.0 
END IONS

BEGIN IONS
TITLE=Scan Number: 230
PEPMASS=283.15302
CHARGE=1+
MSLEVEL=2
FILENAME=C4_GC4_01_2696.mzXML
INSTRUMENT=ion trap
SCANS=230
SMILES=COC1=C(C)C(OCC(O)C(C)(C)O)=CC(CO)=C1CO
INCHIKEY=MAQMWSUGBCIGLJ-UHFFFAOYSA-N
77.038277 576.0 
78.040665 127.0 
79.052216 1481.0 
80.060646 644.0 
81.069611 1473.0 
83.014252 583.0 
83.053398 242.0 
84.144463 197.0 
84.293983 219.0 
87.741852 218.0 
91.05426 2508.0 
92.057442 346.0 
92.830093 327.0 
93.069351 836.0 
94.074539 165.0 
94.683723 238.0 
95.049507 1152.0 
95.084831 1643.0 
96.009811 125.0 
96.090706 194.0 
97.043083 194.0 
97.066208 148.0 
101.96431 96.0 
102.854652 299.0 
103.050743 709.0 
104.937431 169.0 
105.043228 1267.0 
105.070107 1422.0 
106.018768 103.0 
106.934486 303.0 
107.047897 1290.0 
107.08577 1731.0 
107.971298 130.0 
108.057976 624.0 
108.088676 362.0 
109.066025 6527.0 
110.071693 844.0 
111.085037 182.0 
117.069786 318.0 
119.062065 209.0 
120.059311 534.0 
120.741188 163.0 
121.065102 6821.0 
121.19313 121.0 
121.950668 335.0 
122.073463 1438.0 
123.018776 211.0 
123.044441 2124.0 
123.080528 4440.0 
125.061264 156.0 
125.096268 474.0 
128.265442 425.0 
130.692123 191.0 
131.903885 188.0 
132.056061 202.0 
133.06604 1107.0 
135.080322 5631.0 
136.052643 489.0 
136.085632 490.0 
137.059433 855.0 
137.884109 103.0 
138.025986 165.0 
138.068436 7866.0 
138.442383 105.0 
139.073914 1687.0 
149.064331 621.0 
150.068344 711.0 
151.076706 17155.0 
152.058304 173.0 
152.079147 789.0 
152.988571 197.0 
153.091995 9761.0 
153.319153 166.0 
154.064697 165.0 
154.096268 396.0 
159.043121 128.0 
161.101517 262.0 
161.630524 135.0 
163.07692 1722.0 
164.087952 374.0 
165.022903 103.0 
165.052277 762.0 
166.063919 1172.0 
177.092453 186.0 
178.099503 196.0 
179.070114 435.0 
180.602158 231.0 
180.824936 109.0 
180.884064 137.0 
180.910614 114.0 
181.08699 51911.0 
181.368805 281.0 
181.50946 135.0 
181.851776 121.0 
182.08989 2111.0 
182.222946 128.0 
183.433044 83.0 
188.125717 235.0 
190.923645 151.0 
205.068283 221.0 
222.121704 274.0 
283.158752 3043.0 
1699.097534 353.0 
1881.132324 318.0 
1912.559692 135.0 
1978.737549 249.0 
END IONS

BEGIN IONS
TITLE=Scan Number: 234
PEPMASS=579.16998
CHARGE=1+
MSLEVEL=2
FILENAME=C4_GC4_01_2696.mzXML
INSTRUMENT=ion trap
SCANS=234
SMILES=C[C@@H]1O[C@@H](O[C@@H]2[C@@H](O)[C@H](O)[C@@H](CO)O[C@H]2OC3=CC4=C(C(=O)C[C@H](O4)C5=CC(O)=C(O)C=C5)C(O)=C3)[C@H](O)[C@H](O)[C@H]1O
INCHIKEY=OBKKEZLIABHSGY-DOYQYKRZSA-N
71.009964 192.0 
71.048729 3040.0 
72.050896 226.0 
73.027054 96.0 
75.044212 247.0 
79.02018 147.0 
83.048233 411.0 
84.051941 112.0 
85.028702 3584.0 
87.043144 351.0 
87.221077 171.0 
91.037712 200.0 
91.636864 109.0 
97.029007 423.0 
98.141632 352.0 
101.018524 295.0 
103.040207 169.0 
109.006767 276.0 
109.028831 442.0 
111.042923 475.0 
118.037766 200.0 
118.811813 235.0 
121.027679 1000.0 
122.030685 185.0 
123.009819 161.0 
128.50766 174.0 
129.054352 1425.0 
132.708588 200.0 
134.714355 141.0 
145.0271 152.0 
146.106766 274.0 
147.06456 752.0 
149.024979 566.0 
150.02858 120.0 
154.02005 173.0 
154.648605 104.0 
160.084839 80.0 
161.063431 222.0 
165.019196 439.0 
165.089645 160.0 
166.615433 200.0 
166.82605 108.0 
167.034882 789.0 
167.28624 114.0 
171.045502 299.0 
171.076218 117.0 
171.115723 158.0 
175.040451 103.0 
177.017044 406.0 
178.02887 212.0 
179.546646 220.0 
181.01741 189.0 
181.087097 921.0 
182.054413 148.0 
184.430283 179.0 
188.044571 207.0 
188.095779 220.0 
189.056366 86.0 
191.03775 159.0 
191.065994 202.0 
192.313599 209.0 
195.030289 1316.0 
197.039825 137.0 
197.069366 309.0 
199.041214 224.0 
202.052307 239.0 
203.804459 208.0 
205.055862 244.0 
209.020187 297.0 
215.033234 165.0 
216.028046 214.0 
217.046661 203.0 
222.042252 221.0 
223.074997 135.0 
225.571747 209.0 
230.949692 162.0 
232.027298 174.0 
232.980896 340.0 
233.043198 338.0 
235.075836 351.0 
237.020645 148.0 
239.063858 148.0 
239.092911 105.0 
240.522278 201.0 
242.383072 201.0 
249.117294 190.0 
250.060669 190.0 
254.092926 167.0 
256.070435 132.0 
261.067749 126.0 
263.112885 220.0 
267.070618 1780.0 
268.070984 221.0 
269.048248 140.0 
269.355194 88.0 
269.626526 203.0 
270.050812 1240.0 
270.093689 163.0 
271.060242 2742.0 
272.065552 778.0 
273.037872 333.0 
279.061768 350.0 
281.04184 116.0 
281.083099 3551.0 
281.198669 244.0 
281.666748 151.0 
282.687683 177.0 
282.988892 164.0 
283.061859 39080.0 
283.153381 643.0 
284.007385 112.0 
284.066284 10565.0 
285.067596 946.0 
286.086426 429.0 
286.161346 173.0 
291.067474 358.0 
293.081818 103.0 
294.050507 294.0 
295.062042 4414.0 
295.315277 286.0 
296.06543 1368.0 
297.045593 542.0 
297.078369 2132.0 
297.203613 287.0 
298.07901 605.0 
298.115845 242.0 
299.054688 702.0 
301.17984 86.0 
305.053619 208.0 
305.085785 904.0 
306.084839 172.0 
307.060669 423.0 
308.064178 788.0 
308.112732 115.0 
308.397308 115.0 
308.976776 207.0 
309.043793 2370.0 
309.076324 10425.0 
310.042389 346.0 
310.081177 1918.0 
310.32428 114.0 
310.827789 90.0 
311.061432 832.0 
311.093567 613.0 
312.997223 532.0 
313.07251 65438.0 
313.205963 349.0 
313.570343 118.0 
314.075928 9630.0 
314.181 120.0 
315.080444 389.0 
316.334045 133.0 
317.089355 166.0 
318.958069 135.0 
319.092834 226.0 
321.074585 1314.0 
322.090363 392.0 
323.092804 6621.0 
323.231415 226.0 
324.100128 919.0 
325.00174 153.0 
325.071869 1147.0 
326.051544 82.0 
326.095367 288.0 
327.347778 83.0 
333.076904 1212.0 
333.217926 144.0 
333.451324 138.0 
334.087646 171.0 
335.090332 1191.0 
335.937286 154.0 
336.065552 307.0 
336.572754 114.0 
336.970612 413.0 
337.073151 25854.0 
337.424072 101.0 
338.076111 5200.0 
338.914917 335.0 
339.096985 403.0 
339.738647 100.0 
340.130035 128.0 
340.25354 90.0 
340.404022 148.0 
341.087646 267.0 
343.088867 574.0 
345.046173 170.0 
345.078705 166.0 
348.954163 87.0 
349.072693 6364.0 
350.07431 1863.0 
351.022552 203.0 
351.091461 1443.0 
352.091553 174.0 
353.068878 125.0 
355.174011 139.0 
356.078949 210.0 
361.072876 3031.0 
362.080536 660.0 
363.09021 3682.0 
364.093842 760.0 
365.204193 190.0 
367.084351 7547.0 
368.039093 121.0 
368.08725 1922.0 
375.111389 91.0 
379.085358 12138.0 
380.089203 2931.0 
381.102142 10024.0 
381.938995 78.0 
382.062408 123.0 
382.106049 746.0 
382.707977 98.0 
384.834259 94.0 
385.052917 197.0 
385.292999 120.0 
387.042938 111.0 
396.088562 129.0 
396.692963 148.0 
397.036316 958.0 
397.095764 11229.0 
397.330688 232.0 
398.095673 1183.0 
399.110321 2446.0 
400.116425 376.0 
403.435486 252.0 
409.434692 154.0 
410.450867 228.0 
413.947296 205.0 
414.987488 167.0 
415.107361 24442.0 
416.054901 125.0 
416.109192 4014.0 
417.044159 164.0 
417.121063 2064.0 
418.071625 163.0 
418.120453 1105.0 
418.247009 292.0 
423.025116 174.0 
429.212646 148.0 
430.701569 99.0 
432.873474 94.0 
433.037689 527.0 
433.116547 33187.0 
433.752838 122.0 
434.121246 5541.0 
435.118408 226.0 
435.363464 93.0 
435.849579 117.0 
437.141968 99.0 
459.117889 99.0 
535.201355 134.0 
543.164673 215.0 
544.169861 301.0 
561.102234 154.0 
561.167236 949.0 
562.171814 278.0 
579.18457 1218.0 
580.144653 242.0 
581.179626 153.0 
814.132507 174.0 
END IONS

BEGIN IONS
TITLE=Scan Number: 237
PEPMASS=250.16499
CHARGE=1+
MSLEVEL=2
FILENAME=A7_GA7_01_2790.mzXML
INSTRUMENT=ion trap
SCANS=237
SMILES=CCCCCCC(C(O)CC(O)=O)C(O)=O
INCHIKEY=MFSMRLNNRGLWQD-UHFFFAOYSA-N
71.013725 1446.0 
72.016205 234.0 
73.023087 146.0 
77.040169 181.0 
78.870163 269.0 
79.051079 719.0 
80.056007 118.0 
81.034378 399.0 
81.071419 1740.0 
82.073875 507.0 
83.051971 223.0 
83.085983 1011.0 
85.03022 158.0 
91.055107 1224.0 
93.055458 236.0 
93.071365 351.0 
93.201256 114.0 
95.048859 671.0 
95.0924 357.0 
96.932838 164.0 
97.099312 172.0 
98.899094 210.0 
99.045013 217.0 
105.045517 165.0 
105.07019 546.0 
106.049042 191.0 
107.049751 178.0 
107.084656 639.0 
108.090958 381.0 
109.064445 468.0 
109.101677 9779.0 
119.084595 923.0 
121.064781 385.0 
121.751884 159.0 
123.119034 3571.0 
124.116692 176.0 
127.039818 131.0 
127.110977 1757.0 
131.084793 202.0 
133.101059 2128.0 
134.105087 178.0 
135.081192 381.0 
137.060699 175.0 
137.097366 1130.0 
138.102814 236.0 
141.055222 302.0 
141.130676 144.0 
151.111282 3386.0 
152.119675 157.0 
155.107941 7096.0 
156.115524 207.0 
157.402267 131.0 
161.047531 208.0 
161.096069 166.0 
163.742813 215.0 
169.122665 2603.0 
170.12912 247.0 
172.803421 190.0 
172.868439 261.0 
173.052078 100.0 
173.118454 12348.0 
174.122131 765.0 
174.229706 187.0 
177.076935 213.0 
179.10733 3033.0 
180.110138 157.0 
190.057526 160.0 
191.123947 159.0 
197.117935 7268.0 
198.11853 495.0 
199.543518 115.0 
215.128372 1187.0 
233.132858 169.0 
237.091934 236.0 
1517.345703 272.0 
END IONS

BEGIN IONS
TITLE=Scan Number: 238
PEPMASS=502.11899
CHARGE=1+
MSLEVEL=2
FILENAME=A7_GA7_01_2790.mzXML
INSTRUMENT=ion trap
SCANS=238
SMILES=OC1C(O)C(COC(=O)C2=CC(O)=C(O)C(O)=C2)OC(OC(=O)C3=CC(O)=C(O)C(O)=C3)C1O
INCHIKEY=LYGRISUQIZNHGM-UHFFFAOYSA-N
79.906174 108.0 
81.033813 1840.0 
82.03212 165.0 
85.028496 1027.0 
86.027 168.0 
97.011208 191.0 
97.029861 1043.0 
99.046204 468.0 
107.013298 138.0 
108.045868 735.0 
108.902481 314.0 
109.029327 1793.0 
117.053619 188.0 
125.025337 1019.0 
125.889786 190.0 
127.038269 2239.0 
136.526306 255.0 
137.03537 410.0 
143.034836 2027.0 
144.037949 157.0 
145.049728 865.0 
152.633377 96.0 
152.844543 179.0 
152.96553 241.0 
153.018997 70955.0 
153.161407 269.0 
153.339188 204.0 
153.762863 97.0 
154.021469 5054.0 
154.864792 129.0 
155.018585 159.0 
155.204025 123.0 
155.304947 178.0 
163.132782 211.0 
164.205704 96.0 
170.02301 181.0 
170.786774 185.0 
171.0289 6049.0 
172.033707 504.0 
191.62912 96.0 
197.038696 132.0 
224.065002 142.0 
237.041306 187.0 
243.047409 215.0 
255.040466 322.0 
277.68927 84.0 
279.049835 161.0 
296.9086 162.0 
297.062347 9712.0 
298.069092 960.0 
315.071686 8222.0 
315.263763 251.0 
316.075928 451.0 
317.074585 102.0 
449.066833 390.0 
450.080261 117.0 
466.907898 88.0 
467.820129 132.0 
468.086182 166.0 
END IONS

BEGIN IONS
TITLE=Scan Number: 239
PEPMASS=507.20099
CHARGE=1+
MSLEVEL=2
FILENAME=A7_GA7_01_2790.mzXML
INSTRUMENT=ion trap
SCANS=239
SMILES=COC1=C(O)C=CC(CC2COC(C2COC(=O)\C=C\C3=CC=C(O)C=C3)C4=CC(OC)=C(O)C=C4)=C1
INCHIKEY=ZNVUQZAVBXKEGF-WUXMJOGZSA-N
81.070297 155.0 
84.248055 159.0 
91.054497 2494.0 
92.054298 165.0 
95.04776 169.0 
95.084213 157.0 
101.137375 195.0 
105.06826 217.0 
109.063026 196.0 
109.101036 162.0 
113.253181 162.0 
115.056534 252.0 
116.059135 154.0 
118.998207 208.0 
119.049232 13067.0 
120.0522 584.0 
120.740761 97.0 
121.451462 186.0 
123.080215 252.0 
129.070908 2631.0 
130.07222 95.0 
131.049927 1246.0 
131.084778 1445.0 
131.429337 264.0 
132.09169 180.0 
133.925644 270.0 
137.060242 6587.0 
139.141373 129.0 
141.071106 870.0 
142.074265 574.0 
143.050308 212.0 
145.063293 496.0 
146.042465 255.0 
146.068802 474.0 
146.64502 203.0 
147.044815 46337.0 
147.351883 135.0 
147.982437 231.0 
148.047485 3082.0 
149.002609 157.0 
149.060043 332.0 
149.294357 174.0 
151.076569 1371.0 
152.064011 187.0 
153.063339 268.0 
155.063217 162.0 
157.064987 1759.0 
158.067413 405.0 
159.046021 178.0 
159.081635 2938.0 
160.052307 286.0 
161.095123 197.0 
162.066925 105.0 
163.076935 847.0 
165.060501 182.0 
166.353577 105.0 
169.069427 1361.0 
170.073364 703.0 
172.049103 137.0 
173.058945 124.0 
173.654892 203.0 
174.067047 3730.0 
174.555801 125.0 
175.067932 334.0 
179.113464 156.0 
181.071396 173.0 
185.094864 302.0 
186.067581 621.0 
187.074051 1021.0 
188.086182 719.0 
189.091187 6814.0 
189.229279 162.0 
189.318542 259.0 
190.095367 852.0 
191.102631 233.0 
197.068634 152.0 
201.0923 3110.0 
202.091949 340.0 
204.421295 108.0 
209.071625 296.0 
218.493011 195.0 
219.102386 19331.0 
219.39917 181.0 
220.039642 155.0 
220.107727 1697.0 
221.059341 156.0 
221.087433 317.0 
221.897781 193.0 
236.118332 180.0 
237.100388 252.0 
239.071716 167.0 
240.064529 164.0 
241.052795 215.0 
250.100723 276.0 
254.087646 149.0 
262.08728 166.0 
264.084473 375.0 
265.12619 313.0 
272.092743 133.0 
278.102722 548.0 
279.099426 217.0 
283.02774 115.0 
283.100983 570.0 
284.100891 119.0 
293.115387 95.0 
296.123627 251.0 
310.115265 202.0 
325.144897 922.0 
325.21994 194.0 
325.259003 149.0 
326.148712 581.0 
327.081177 130.0 
327.296356 176.0 
328.082062 103.0 
343.153564 275.0 
344.159119 161.0 
365.132935 518.0 
382.184937 158.0 
384.089905 116.0 
392.149811 216.0 
472.211212 137.0 
475.223419 149.0 
475.329956 133.0 
489.292786 201.0 
506.328857 251.0 
507.168884 118.0 
507.232544 264.0 
507.297699 264.0 
1667.841064 121.0 
1953.724487 238.0 
END IONS

BEGIN IONS
TITLE=Scan Number: 244
PEPMASS=643.34698
CHARGE=1+
MSLEVEL=2
FILENAME=A7_GA7_01_2790.mzXML
INSTRUMENT=ion trap
SCANS=244
SMILES=CC(C)C(=O)OC1CC2C3(C)C(CC(OC(=O)C(C)C)C2(C)C45OC4CC(C6=COC=C6)C15C)C(C)(C)OC(=O)CC3OC(C)=O
INCHIKEY=WUZBIWQZQNLCPP-UHFFFAOYSA-N
71.014488 220.0 
71.047653 150.0 
73.978966 213.0 
76.705658 257.0 
76.900177 237.0 
79.052429 492.0 
81.033951 324.0 
81.070045 400.0 
83.08773 823.0 
83.512253 206.0 
85.040451 212.0 
85.065506 185.0 
91.05484 389.0 
93.071342 1453.0 
94.849754 90.0 
95.049377 5570.0 
95.087234 725.0 
96.047356 324.0 
97.029701 1374.0 
97.066338 327.0 
97.10112 348.0 
98.02755 284.0 
101.078072 275.0 
102.937912 91.0 
105.042656 326.0 
105.068253 1655.0 
107.049469 317.0 
107.086807 1464.0 
108.057518 271.0 
108.087845 512.0 
109.065247 986.0 
109.102219 512.0 
110.105438 190.0 
111.042023 373.0 
111.061867 257.0 
111.079727 1313.0 
112.083443 389.0 
113.056175 254.0 
114.071724 227.0 
117.069931 253.0 
119.048248 158.0 
119.068314 324.0 
119.0867 3181.0 
120.047699 261.0 
120.091988 208.0 
120.879929 285.0 
121.029564 2974.0 
121.064453 1662.0 
121.102158 745.0 
122.034256 320.0 
122.06916 373.0 
123.045181 681.0 
123.079727 822.0 
123.118866 189.0 
123.863655 220.0 
124.087746 243.0 
124.151299 187.0 
125.056755 179.0 
125.072617 345.0 
125.092201 332.0 
126.093567 146.0 
129.069763 949.0 
131.085938 1872.0 
132.08934 252.0 
133.067413 1213.0 
133.10202 2433.0 
134.069519 482.0 
134.109573 153.0 
135.043121 408.0 
135.082352 1328.0 
135.117386 693.0 
136.090881 202.0 
137.060867 478.0 
137.095078 376.0 
137.30159 249.0 
137.978424 178.0 
138.065872 197.0 
138.475662 265.0 
139.035141 369.0 
139.075287 368.0 
140.989426 113.0 
141.051071 146.0 
141.074799 305.0 
141.095551 168.0 
142.075241 649.0 
143.084641 2626.0 
143.752472 196.0 
144.059525 440.0 
144.647995 187.0 
144.956253 206.0 
145.065262 2376.0 
145.100708 4825.0 
145.962219 224.0 
146.070145 271.0 
146.106033 700.0 
146.636978 138.0 
147.080734 2857.0 
147.116867 1006.0 
147.194107 104.0 
147.617966 350.0 
148.048447 310.0 
148.083984 424.0 
148.12059 392.0 
149.061035 433.0 
149.094666 570.0 
151.077805 972.0 
151.111984 958.0 
151.826385 171.0 
152.115768 127.0 
153.091873 1062.0 
154.072693 184.0 
154.13765 360.0 
155.049194 420.0 
155.086044 2679.0 
156.090988 1027.0 
157.05159 379.0 
157.10289 6689.0 
157.761002 188.0 
158.07074 192.0 
158.109161 960.0 
158.686386 296.0 
159.083237 1681.0 
159.116592 2174.0 
160.088348 232.0 
160.273972 102.0 
160.434311 174.0 
160.986252 170.0 
161.061951 289.0 
161.096481 785.0 
161.132004 1531.0 
163.043396 208.0 
163.078552 1196.0 
163.112518 368.0 
163.984451 206.0 
164.083054 424.0 
164.116898 189.0 
165.061905 176.0 
165.092865 909.0 
165.368011 146.0 
166.088531 379.0 
167.086258 785.0 
168.097122 699.0 
169.103043 5064.0 
169.373718 175.0 
170.107574 2484.0 
171.029633 196.0 
171.083542 1847.0 
171.11795 7810.0 
171.342896 147.0 
172.094299 543.0 
172.118088 620.0 
173.095764 2366.0 
173.133682 1644.0 
174.060242 94.0 
174.099548 110.0 
174.133255 208.0 
175.039124 172.0 
175.080032 1041.0 
175.112747 681.0 
176.078476 522.0 
177.093674 370.0 
177.126007 396.0 
178.656296 235.0 
179.086746 334.0 
179.108719 854.0 
180.093033 319.0 
181.066681 101.0 
181.104187 1333.0 
182.077118 358.0 
182.109985 750.0 
183.081726 1548.0 
183.117233 16112.0 
184.118988 3068.0 
184.53653 192.0 
184.953293 110.0 
185.097931 2118.0 
185.132828 4512.0 
185.32663 257.0 
186.099228 404.0 
186.138779 1449.0 
187.07663 478.0 
187.111191 515.0 
187.149887 882.0 
188.106934 157.0 
188.662979 213.0 
189.093903 1709.0 
190.134552 220.0 
191.087875 349.0 
191.105972 460.0 
191.146103 282.0 
192.100098 459.0 
193.102005 2192.0 
194.111572 1128.0 
194.85997 100.0 
195.079895 637.0 
195.11824 4622.0 
196.084564 537.0 
196.123337 1309.0 
196.863052 251.0 
197.058975 132.0 
197.098663 3544.0 
197.132614 3382.0 
198.100983 998.0 
198.13588 1247.0 
199.074936 708.0 
199.112778 3202.0 
199.148331 2383.0 
199.936813 254.0 
200.115295 180.0 
200.155624 244.0 
200.846954 290.0 
201.08989 900.0 
201.128357 1608.0 
201.161774 999.0 
201.806305 109.0 
202.084427 184.0 
202.126312 161.0 
203.076294 543.0 
203.104431 341.0 
203.14566 730.0 
205.041351 148.0 
205.101074 583.0 
205.126297 314.0 
205.158447 190.0 
205.598587 180.0 
206.107056 397.0 
206.165649 169.0 
207.116287 1982.0 
208.088684 455.0 
208.124435 948.0 
209.058472 143.0 
209.095901 1792.0 
209.133469 5197.0 
209.652725 218.0 
210.097778 753.0 
210.140442 1615.0 
211.111603 5566.0 
211.148941 3483.0 
212.11441 584.0 
212.154678 151.0 
213.08876 779.0 
213.127533 2314.0 
213.161209 706.0 
214.129944 398.0 
214.175476 158.0 
215.106842 2830.0 
215.143066 659.0 
215.181763 423.0 
216.109375 682.0 
216.150864 127.0 
217.022415 147.0 
217.089859 1375.0 
217.121384 1542.0 
217.161545 210.0 
218.04361 114.0 
218.083664 229.0 
218.131836 601.0 
219.075317 133.0 
219.119659 655.0 
220.091248 321.0 
220.125839 667.0 
221.098755 644.0 
221.132339 571.0 
221.446503 154.0 
222.106339 643.0 
222.141098 426.0 
222.367645 90.0 
222.577286 107.0 
223.079636 260.0 
223.112381 2596.0 
223.149811 2117.0 
224.116089 1610.0 
224.157013 636.0 
224.410522 121.0 
225.091324 1034.0 
225.128662 4943.0 
225.165543 7673.0 
225.42691 162.0 
225.502548 114.0 
225.895981 122.0 
226.138931 1362.0 
226.16893 2153.0 
227.106689 1126.0 
227.144608 2254.0 
228.094254 215.0 
228.151276 293.0 
228.182373 208.0 
229.124756 3272.0 
229.154663 675.0 
230.10881 1144.0 
230.162811 311.0 
230.651688 217.0 
231.136581 2282.0 
232.09436 450.0 
232.128845 837.0 
233.096909 885.0 
233.127182 2126.0 
233.379608 146.0 
234.101486 443.0 
234.139847 475.0 
234.161041 519.0 
235.11554 2715.0 
235.151291 1263.0 
236.114334 712.0 
237.127533 2985.0 
237.162888 817.0 
238.13089 667.0 
238.161545 396.0 
239.069504 354.0 
239.10788 3189.0 
239.148163 858.0 
239.177551 2538.0 
239.550369 121.0 
240.118134 480.0 
240.146896 255.0 
240.183014 145.0 
241.12088 2680.0 
241.159088 382.0 
241.196671 343.0 
242.093872 203.0 
242.125122 614.0 
242.162964 440.0 
242.827026 104.0 
243.07753 122.0 
243.106277 1256.0 
243.136078 1966.0 
243.174652 1174.0 
244.139664 125.0 
244.171738 166.0 
244.232788 175.0 
245.121964 2951.0 
245.154724 1143.0 
245.18959 331.0 
246.108017 561.0 
246.142426 884.0 
247.113098 2203.0 
247.153442 1082.0 
247.483414 296.0 
248.11795 1217.0 
248.151031 164.0 
248.528015 284.0 
249.09639 388.0 
249.128845 2159.0 
249.1604 1282.0 
250.127502 692.0 
250.164352 131.0 
251.081665 394.0 
251.143784 1562.0 
251.17688 1100.0 
252.115936 559.0 
252.188538 310.0 
253.088364 199.0 
253.123978 1181.0 
253.160645 1015.0 
253.249405 232.0 
254.12851 225.0 
255.1035 146.0 
255.136154 3761.0 
256.122375 621.0 
256.335419 203.0 
257.118835 1534.0 
257.158508 851.0 
258.1185 233.0 
258.159821 572.0 
258.257507 207.0 
259.149872 1178.0 
259.213074 175.0 
260.123962 626.0 
260.152985 568.0 
260.175873 432.0 
261.129791 3456.0 
261.162933 1193.0 
261.852264 92.0 
262.09491 210.0 
262.131134 1179.0 
262.171692 377.0 
263.144806 3651.0 
264.149231 1360.0 
265.096344 372.0 
265.126709 1002.0 
265.160156 1105.0 
265.830841 135.0 
266.134064 537.0 
266.163849 300.0 
266.198059 124.0 
267.098907 286.0 
267.139923 1189.0 
267.177063 5897.0 
268.1492 511.0 
269.115387 1468.0 
269.147583 719.0 
269.644562 181.0 
270.078491 158.0 
270.159637 504.0 
270.677521 155.0 
271.0513 201.0 
271.080536 140.0 
271.164948 2591.0 
272.157654 534.0 
273.137817 1208.0 
273.169281 749.0 
273.94809 171.0 
274.13382 1090.0 
275.108276 454.0 
275.147278 1358.0 
275.183624 440.0 
275.907745 230.0 
276.05957 192.0 
276.143402 396.0 
277.083466 177.0 
277.125977 2524.0 
277.158691 3538.0 
279.094116 318.0 
279.139832 2752.0 
279.177032 860.0 
280.148224 856.0 
280.190033 256.0 
281.118713 601.0 
281.154419 2623.0 
282.159912 491.0 
283.170013 3248.0 
284.176544 1352.0 
284.594727 250.0 
285.102448 292.0 
285.187256 5263.0 
286.15799 352.0 
286.193604 783.0 
286.559814 212.0 
287.144562 2786.0 
287.191742 524.0 
288.108917 108.0 
288.150452 759.0 
288.956573 96.0 
289.160431 2327.0 
289.201874 409.0 
289.574066 182.0 
290.045197 204.0 
290.166138 1145.0 
290.889557 230.0 
291.102173 369.0 
291.13913 2376.0 
291.17334 1350.0 
292.098022 122.0 
292.138062 1140.0 
293.090912 247.0 
293.119293 1136.0 
293.152649 2174.0 
293.188171 1496.0 
294.124268 153.0 
294.159821 758.0 
295.13269 2355.0 
295.167023 3220.0 
295.205719 331.0 
296.148376 476.0 
296.173859 415.0 
297.12619 328.0 
297.153931 604.0 
298.149109 365.0 
299.125458 276.0 
299.162354 356.0 
299.39505 98.0 
300.145111 328.0 
300.167236 485.0 
301.122498 690.0 
301.179169 558.0 
302.159607 698.0 
302.20105 323.0 
303.140289 1831.0 
303.173737 3268.0 
304.146179 327.0 
304.18103 1534.0 
305.156616 7962.0 
305.272552 115.0 
305.597595 190.0 
305.725861 123.0 
305.832886 92.0 
306.158691 1463.0 
307.136505 1115.0 
307.170959 4670.0 
307.215912 139.0 
308.170685 942.0 
309.152618 738.0 
309.183868 1263.0 
311.08548 217.0 
311.130341 1456.0 
311.165649 847.0 
312.130554 428.0 
312.213257 200.0 
312.726654 218.0 
313.112793 109.0 
313.182007 7325.0 
314.176514 1220.0 
314.940186 98.0 
315.135529 411.0 
315.17807 406.0 
315.725128 105.0 
316.152496 216.0 
317.184174 269.0 
318.15921 144.0 
318.198029 116.0 
319.08725 209.0 
319.132935 1320.0 
319.171875 3384.0 
319.204712 3785.0 
319.866699 155.0 
320.145325 519.0 
320.174622 677.0 
320.212158 326.0 
320.333649 225.0 
320.874878 99.0 
320.985718 145.0 
321.148529 719.0 
321.183929 5471.0 
322.083282 234.0 
322.15683 290.0 
322.189484 1917.0 
323.128326 383.0 
323.165802 1404.0 
323.200714 2106.0 
324.139374 364.0 
324.205353 1303.0 
324.538818 201.0 
325.14566 596.0 
325.188782 459.0 
327.163666 127.0 
327.875946 223.0 
328.162415 115.0 
329.146484 1373.0 
329.190338 2912.0 
329.53479 174.0 
330.175995 502.0 
330.201416 591.0 
331.172424 1943.0 
331.657013 98.0 
332.162994 166.0 
332.190704 504.0 
332.748566 163.0 
333.151825 1594.0 
333.191925 477.0 
333.21759 320.0 
333.311981 104.0 
334.150085 281.0 
335.161255 443.0 
335.200836 891.0 
335.498322 96.0 
336.194336 203.0 
337.14328 1772.0 
337.217865 8325.0 
337.533356 310.0 
337.844147 131.0 
338.14856 918.0 
338.185486 410.0 
338.223389 1818.0 
339.159027 3573.0 
340.161804 340.0 
340.197449 187.0 
341.162323 217.0 
342.164062 383.0 
343.202728 1664.0 
344.215912 259.0 
345.183594 971.0 
346.154999 163.0 
346.190948 579.0 
347.009583 151.0 
347.202545 16087.0 
347.404358 135.0 
348.171844 1234.0 
348.207642 3724.0 
349.096466 374.0 
349.181244 5011.0 
350.184631 1431.0 
351.163025 1699.0 
352.163513 814.0 
355.164307 122.0 
355.22467 190.0 
356.154053 160.0 
360.633911 154.0 
361.131714 94.0 
361.16861 400.0 
361.215668 5794.0 
362.217438 1841.0 
362.697815 138.0 
363.196259 3372.0 
363.232178 1589.0 
364.196136 842.0 
364.246185 139.0 
364.278503 125.0 
364.35141 152.0 
364.974609 188.0 
365.211029 26134.0 
366.122437 123.0 
366.179596 1052.0 
366.216644 6644.0 
366.667419 126.0 
367.19696 1772.0 
368.641296 123.0 
369.201721 107.0 
371.135864 259.0 
371.203705 1836.0 
372.210724 121.0 
373.205078 311.0 
374.126404 129.0 
374.165009 243.0 
374.573059 147.0 
374.847443 96.0 
379.172516 104.0 
379.231506 1106.0 
379.272217 257.0 
379.694885 290.0 
379.964233 165.0 
380.236908 347.0 
381.238892 700.0 
383.225159 923.0 
384.297455 98.0 
389.212708 20610.0 
389.661133 189.0 
390.112335 110.0 
390.146484 333.0 
390.216125 4170.0 
391.217285 432.0 
392.235382 264.0 
393.227661 148.0 
394.408234 102.0 
397.221161 142.0 
399.189484 143.0 
399.255249 139.0 
400.185608 148.0 
401.195709 190.0 
402.77298 146.0 
403.005463 148.0 
406.786255 227.0 
406.986298 253.0 
407.078461 278.0 
407.223511 42978.0 
407.493378 116.0 
407.836029 90.0 
408.226257 10407.0 
408.613647 168.0 
409.078094 372.0 
409.195984 261.0 
409.240082 677.0 
410.226196 147.0 
410.610382 117.0 
410.826721 152.0 
410.939209 89.0 
411.17627 411.0 
411.229614 159.0 
413.216217 227.0 
423.219971 225.0 
425.066406 210.0 
425.233215 9743.0 
426.235626 1976.0 
427.23468 707.0 
430.300995 136.0 
434.235138 129.0 
435.207977 202.0 
435.249512 169.0 
437.232239 1061.0 
437.475586 195.0 
438.249817 546.0 
439.244904 395.0 
440.215363 215.0 
449.181396 406.0 
449.236237 2393.0 
450.228241 341.0 
453.118378 108.0 
453.267334 6107.0 
454.265594 1620.0 
455.27417 320.0 
457.21701 220.0 
457.844666 85.0 
459.197998 129.0 
462.611542 142.0 
463.567108 98.0 
467.13446 309.0 
467.243408 5951.0 
467.806091 95.0 
468.249573 1435.0 
469.253479 227.0 
471.267365 161.0 
477.170166 124.0 
477.25943 541.0 
478.281555 323.0 
479.24588 105.0 
481.247101 136.0 
484.259583 151.0 
495.275665 4155.0 
496.281921 1298.0 
513.280151 604.0 
514.290588 166.0 
555.332642 236.0 
601.335022 133.0 
630.534302 123.0 
643.357483 461.0 
692.396912 215.0 
1140.404541 262.0 
1459.44519 113.0 
1500.297974 137.0 
1901.694824 160.0 
1977.239502 267.0 
END IONS

BEGIN IONS
TITLE=Scan Number: 246
PEPMASS=294.134
CHARGE=1+
MSLEVEL=2
FILENAME=E2_RE2_01_2758.mzXML
INSTRUMENT=ion trap
SCANS=246
SMILES=COC1=C(C(O)C(O)C(C)=C)C2=C(C=CC(=O)O2)C=C1
INCHIKEY=DKEANOQWICTXTP-UHFFFAOYSA-N
72.606018 241.0 
73.122971 166.0 
77.040047 640.0 
79.056404 486.0 
80.855637 287.0 
83.963089 260.0 
89.036209 204.0 
91.054207 1534.0 
92.060173 598.0 
95.049858 1177.0 
95.637817 235.0 
99.556389 191.0 
102.044487 399.0 
103.01162 312.0 
103.054436 11113.0 
103.251488 176.0 
103.954491 299.0 
104.058067 582.0 
104.104065 94.0 
105.044701 1740.0 
105.070297 765.0 
105.551094 163.0 
106.071609 204.0 
107.019592 208.0 
108.033157 170.0 
109.575996 230.0 
112.499306 245.0 
113.450111 149.0 
114.132126 85.0 
115.053566 1151.0 
116.024536 133.0 
116.943153 167.0 
117.0308 260.0 
117.07238 1270.0 
118.04306 238.0 
119.048248 1451.0 
121.068344 796.0 
122.065063 228.0 
127.047752 312.0 
128.035904 178.0 
128.062653 845.0 
128.658691 126.0 
129.069641 670.0 
130.622101 155.0 
131.00267 205.0 
131.049637 61326.0 
131.20816 234.0 
131.607666 163.0 
132.020676 1212.0 
132.054092 4560.0 
132.317184 185.0 
133.020218 120.0 
133.064453 783.0 
134.008423 171.0 
134.036102 1480.0 
134.067444 166.0 
135.049316 395.0 
139.040573 213.0 
141.070099 147.0 
142.068695 535.0 
143.049515 283.0 
143.089951 312.0 
144.056351 446.0 
145.04039 1678.0 
145.065277 2377.0 
145.35611 190.0 
145.493042 156.0 
146.033829 392.0 
146.070053 966.0 
147.044662 4935.0 
147.081833 409.0 
147.204346 201.0 
148.054245 844.0 
149.021973 684.0 
149.057541 697.0 
149.118546 83.0 
150.027237 153.0 
150.896759 245.0 
151.039001 175.0 
152.061066 161.0 
153.066833 769.0 
154.079391 468.0 
155.062073 928.0 
155.085541 370.0 
157.061234 428.0 
158.073608 153.0 
159.044693 3996.0 
159.084915 441.0 
159.126678 113.0 
160.015396 3955.0 
160.049911 898.0 
160.767334 219.0 
161.020401 930.0 
161.060501 2516.0 
161.239594 202.0 
161.398529 105.0 
162.005142 380.0 
162.032593 3125.0 
162.062927 223.0 
162.132721 176.0 
162.578415 187.0 
163.015945 413.0 
163.045883 282.0 
165.072708 181.0 
168.056122 133.0 
169.066544 379.0 
169.917175 78.0 
170.070648 120.0 
171.046432 346.0 
171.079239 460.0 
173.061417 811.0 
173.088104 198.0 
174.682678 135.0 
175.040009 9276.0 
175.090607 379.0 
175.353333 118.0 
176.008957 227.0 
176.042389 1094.0 
177.007019 126.0 
177.055023 979.0 
177.995499 406.0 
178.027634 2945.0 
179.028595 743.0 
181.064835 450.0 
183.042145 133.0 
184.051086 363.0 
184.086395 194.0 
185.065109 88.0 
185.098984 264.0 
187.038147 693.0 
187.99498 270.0 
188.04747 368.0 
188.085968 100.0 
188.731766 126.0 
188.812775 122.0 
188.979858 122.0 
189.055664 89309.0 
189.134918 461.0 
189.243973 108.0 
189.529419 117.0 
190.029266 626.0 
190.059219 5392.0 
190.592438 119.0 
191.493378 212.0 
195.080109 202.0 
198.024094 79.0 
198.070877 1740.0 
199.077438 928.0 
200.075912 332.0 
201.056747 2212.0 
201.74295 121.0 
202.061707 751.0 
202.369965 141.0 
202.518173 153.0 
203.035858 10722.0 
203.072449 6640.0 
203.104675 539.0 
203.432205 157.0 
203.461334 197.0 
204.038757 1360.0 
204.078415 501.0 
204.325928 124.0 
205.051666 24882.0 
205.118256 224.0 
206.053253 1744.0 
208.04921 141.0 
214.110855 139.0 
217.086975 84.0 
217.602768 106.0 
218.09404 87.0 
219.033966 188.0 
219.065109 995.0 
220.063461 199.0 
223.079041 139.0 
225.053955 106.0 
226.041138 341.0 
226.065125 674.0 
231.046265 229.0 
231.103348 37678.0 
231.267273 133.0 
232.107117 3383.0 
241.090317 156.0 
242.096054 108.0 
245.991074 99.0 
259.096375 1024.0 
259.507568 170.0 
260.099335 328.0 
277.090027 135.0 
279.064178 145.0 
740.047424 240.0 
1699.650024 192.0 
1733.317139 332.0 
1827.131226 315.0 
1957.719849 267.0 
END IONS

BEGIN IONS
TITLE=Scan Number: 247
PEPMASS=437.21301
CHARGE=1+
MSLEVEL=2
FILENAME=E2_RE2_01_2758.mzXML
INSTRUMENT=ion trap
SCANS=247
SMILES=CC(C)C(NC=O)C(=O)OCC(O)C(O)C(O)C(O)COC(=O)C(NC=O)C(C)C
INCHIKEY=DORNRAAPIXGDPH-UHFFFAOYSA-N
71.049957 257.0 
71.831963 182.0 
72.08049 15140.0 
72.158287 148.0 
72.882736 108.0 
73.027107 157.0 
73.063736 224.0 
73.084511 810.0 
73.597153 121.0 
73.656075 310.0 
75.771942 199.0 
77.164169 114.0 
79.175117 174.0 
81.030457 398.0 
83.048187 3118.0 
84.051392 511.0 
85.028542 721.0 
87.051781 215.0 
93.037292 510.0 
93.16967 396.0 
94.038872 188.0 
99.04454 606.0 
99.944374 226.0 
100.031883 182.0 
100.075974 78982.0 
100.37056 114.0 
101.01564 248.0 
101.078262 4419.0 
101.435966 97.0 
102.637245 79.0 
102.722656 76.0 
103.037926 170.0 
103.885048 94.0 
110.845192 215.0 
111.044846 5269.0 
111.165436 271.0 
111.305084 166.0 
112.045792 337.0 
118.084686 204.0 
128.071487 8795.0 
129.035156 249.0 
129.05423 4582.0 
130.059235 563.0 
131.050903 121.0 
136.11348 97.0 
138.338272 114.0 
146.052704 206.0 
146.080795 2840.0 
146.459427 123.0 
147.066895 2380.0 
155.985413 188.0 
164.182907 115.0 
165.07637 6229.0 
165.622406 97.0 
166.074387 283.0 
166.096771 296.0 
167.352371 108.0 
183.08931 862.0 
188.09169 409.0 
200.088272 188.0 
210.107452 127.0 
212.623169 110.0 
217.05304 286.0 
228.802963 126.0 
230.899109 156.0 
238.082718 374.0 
238.109741 613.0 
238.330673 159.0 
246.127396 154.0 
254.328568 97.0 
256.120544 2117.0 
256.491669 85.0 
257.007843 228.0 
264.145233 1544.0 
273.675354 182.0 
274.128662 12006.0 
275.132965 1737.0 
276.132233 182.0 
277.045746 166.0 
277.86734 142.0 
292.14032 6130.0 
293.142059 341.0 
302.127838 434.0 
304.276306 104.0 
305.624817 233.0 
328.784943 204.0 
363.226868 135.0 
373.138458 152.0 
373.200684 1241.0 
388.88269 139.0 
391.208313 4938.0 
392.208099 613.0 
398.797516 138.0 
401.195343 5935.0 
401.587921 169.0 
402.198761 579.0 
406.681335 116.0 
407.531464 168.0 
409.223663 472.0 
410.531311 107.0 
419.160248 176.0 
419.202393 2761.0 
420.193878 438.0 
438.122528 78.0 
1314.62854 250.0 
1714.594604 238.0 
1791.816162 376.0 
1858.390137 209.0 
1904.040894 270.0 
1917.601562 183.0 
1953.549683 368.0 
1957.434814 183.0 
1968.132568 203.0 
1976.293091 79.0 
1978.520264 287.0 
END IONS

BEGIN IONS
TITLE=Scan Number: 248
PEPMASS=419.202
CHARGE=1+
MSLEVEL=2
FILENAME=E2_RE2_01_2758.mzXML
INSTRUMENT=ion trap
SCANS=248
SMILES=CC(C)C(NC=O)C(=O)OCC(O)C(O)C(O)C(O)COC(=O)C(NC=O)C(C)C
INCHIKEY=DORNRAAPIXGDPH-UHFFFAOYSA-N
72.036377 166.0 
72.079605 2750.0 
73.064957 193.0 
81.029037 168.0 
83.049423 1205.0 
87.04277 176.0 
88.674561 89.0 
92.570503 241.0 
99.04261 136.0 
100.076065 12975.0 
100.104927 109.0 
100.382278 165.0 
101.080284 508.0 
106.431168 112.0 
111.044502 1526.0 
117.499184 188.0 
118.08506 249.0 
128.069855 1951.0 
129.054977 761.0 
146.080505 440.0 
149.065948 176.0 
160.09668 192.0 
165.078033 606.0 
210.112213 187.0 
212.115112 155.0 
214.59642 116.0 
218.13475 113.0 
232.974594 139.0 
261.231079 184.0 
264.155243 134.0 
274.129883 1022.0 
275.131927 161.0 
292.140656 529.0 
302.123322 185.0 
373.194672 288.0 
374.215393 165.0 
391.209595 679.0 
392.197388 85.0 
401.195312 1781.0 
419.203003 115.0 
1884.87561 183.0 
1957.409546 175.0 
END IONS

BEGIN IONS
TITLE=Scan Number: 249
PEPMASS=454.23999
CHARGE=1+
MSLEVEL=2
FILENAME=E2_RE2_01_2758.mzXML
INSTRUMENT=ion trap
SCANS=249
SMILES=CC(C)C(NC=O)C(=O)OCC(O)C(O)C(O)C(O)COC(=O)C(NC=O)C(C)C
INCHIKEY=DORNRAAPIXGDPH-UHFFFAOYSA-N
71.048462 237.0 
72.080582 7475.0 
73.012093 204.0 
73.066048 284.0 
73.22052 99.0 
73.739082 95.0 
77.245346 99.0 
81.036629 601.0 
83.048721 875.0 
83.974922 378.0 
85.027962 326.0 
91.114433 277.0 
95.158279 192.0 
97.921593 126.0 
99.041237 553.0 
99.100273 192.0 
99.503197 271.0 
100.075874 57696.0 
100.116661 233.0 
100.151787 343.0 
100.428085 88.0 
100.519577 148.0 
101.056122 147.0 
101.078499 1993.0 
101.138374 181.0 
104.979744 127.0 
107.098114 72.0 
110.976562 125.0 
111.045502 4163.0 
112.045914 120.0 
116.651146 156.0 
118.085411 737.0 
128.047501 236.0 
128.071198 11631.0 
129.055283 3233.0 
130.057785 134.0 
136.515915 130.0 
137.378464 190.0 
137.435196 81.0 
138.02037 164.0 
139.004974 124.0 
140.037445 187.0 
146.083054 2102.0 
146.540878 248.0 
147.065079 969.0 
148.064117 122.0 
153.979874 93.0 
154.120148 106.0 
155.073959 204.0 
156.047653 116.0 
165.076096 5799.0 
166.071228 238.0 
169.021774 178.0 
171.033737 105.0 
172.061325 156.0 
173.941605 205.0 
174.045731 215.0 
176.056442 369.0 
178.039688 151.0 
178.673935 223.0 
179.019531 176.0 
183.084915 867.0 
194.073563 249.0 
195.517014 112.0 
200.092117 149.0 
202.003067 212.0 
202.039459 855.0 
203.050598 148.0 
209.270889 147.0 
210.294601 193.0 
211.125153 156.0 
215.863754 139.0 
216.054214 90.0 
220.049713 1130.0 
221.044403 190.0 
226.112198 112.0 
229.080139 129.0 
230.082916 97.0 
238.085526 798.0 
238.110077 987.0 
244.051956 605.0 
246.138489 922.0 
247.091766 150.0 
255.157776 159.0 
256.049896 391.0 
256.121277 1185.0 
257.120422 115.0 
262.059235 181.0 
264.145386 568.0 
269.124878 135.0 
273.930115 180.0 
274.130798 13657.0 
275.0271 85.0 
275.083893 107.0 
275.128235 1083.0 
276.743408 105.0 
281.107727 141.0 
283.157715 163.0 
288.073029 138.0 
290.330139 181.0 
292.035645 96.0 
292.140961 11624.0 
292.934692 132.0 
293.144867 1682.0 
294.153229 243.0 
304.140869 122.0 
329.106049 98.0 
330.107452 203.0 
348.084351 183.0 
363.214203 326.0 
373.203278 887.0 
373.679199 92.0 
385.134186 129.0 
387.79953 227.0 
391.208649 5268.0 
391.509308 171.0 
392.215637 923.0 
398.65155 106.0 
401.013611 303.0 
401.19516 12352.0 
401.26828 115.0 
402.197205 1820.0 
403.193237 223.0 
409.220978 785.0 
417.914032 97.0 
418.119659 117.0 
418.187897 178.0 
419.130768 199.0 
419.204529 11069.0 
419.499329 182.0 
420.210083 1917.0 
422.456696 139.0 
437.218201 1119.0 
438.146271 146.0 
447.178864 169.0 
456.180847 306.0 
765.182495 80.0 
1409.764282 140.0 
1680.014648 177.0 
1780.658203 183.0 
1883.052734 231.0 
END IONS

BEGIN IONS
TITLE=Scan Number: 250
PEPMASS=511.26901
CHARGE=1+
MSLEVEL=2
FILENAME=E2_RE2_01_2758.mzXML
INSTRUMENT=ion trap
SCANS=250
SMILES=C[C@@]12CC[C@H](C[C@H]1[C@H](CCC3(O)[C@@H]4C[C@@H](CC[C@@]4(C)C=CC3=O)C(=C)C(O)=O)C(=O)C=C2)C(=C)C(O)=O
INCHIKEY=BSSWIRVAMSGQMG-RTTXQYISSA-N
70.03688 667.0 
71.048096 610.0 
71.559143 136.0 
71.850227 213.0 
72.623161 249.0 
72.693855 293.0 
73.028923 222.0 
73.109833 180.0 
75.884735 161.0 
76.414787 292.0 
76.903648 326.0 
77.038269 298.0 
77.29351 221.0 
77.93856 307.0 
78.043671 229.0 
79.053337 5025.0 
79.529823 213.0 
80.327881 237.0 
80.716019 84.0 
80.781471 276.0 
80.935181 273.0 
81.032883 1634.0 
81.049164 318.0 
81.069153 4959.0 
81.723877 128.0 
82.072014 573.0 
83.049599 1727.0 
83.084831 227.0 
83.392136 362.0 
84.955681 87.0 
85.028175 183.0 
85.063179 146.0 
86.046249 303.0 
87.032166 331.0 
88.775726 176.0 
89.587257 241.0 
90.325874 267.0 
91.054077 10270.0 
91.222786 238.0 
91.643921 188.0 
91.715294 196.0 
92.057732 1034.0 
92.789375 214.0 
93.033989 1193.0 
93.069824 7067.0 
94.037941 149.0 
94.073616 729.0 
94.203659 292.0 
94.521866 166.0 
95.023369 220.0 
95.048668 5854.0 
95.085266 3242.0 
95.624252 72.0 
95.823166 256.0 
96.051582 193.0 
96.089569 384.0 
97.028137 195.0 
97.063766 2102.0 
97.085579 105.0 
97.178291 81.0 
97.338394 216.0 
97.505394 177.0 
97.596039 190.0 
97.993408 194.0 
98.06662 635.0 
99.046844 120.0 
99.089973 149.0 
99.52935 84.0 
99.821907 399.0 
99.959969 117.0 
99.995201 208.0 
100.028542 143.0 
100.138771 141.0 
100.969139 137.0 
101.366127 150.0 
102.88517 62.0 
102.920456 322.0 
103.05381 1302.0 
103.1408 284.0 
103.739159 71.0 
103.87999 139.0 
104.059029 465.0 
104.595375 192.0 
104.666748 220.0 
105.044624 1620.0 
105.069305 21171.0 
105.920135 249.0 
106.025032 112.0 
106.075493 1849.0 
106.380249 125.0 
107.002373 54.0 
107.049728 2380.0 
107.085831 9194.0 
107.148254 184.0 
107.692131 82.0 
108.048401 303.0 
108.091469 1480.0 
108.295876 258.0 
109.028526 168.0 
109.065346 3674.0 
109.1026 451.0 
109.548218 262.0 
110.070702 943.0 
110.107712 135.0 
110.128143 176.0 
110.891113 94.0 
110.913994 227.0 
111.042847 509.0 
111.080177 1674.0 
111.360252 285.0 
112.468483 266.0 
112.782448 179.0 
113.054527 269.0 
113.141983 514.0 
113.832718 272.0 
113.906807 222.0 
114.02227 223.0 
115.054161 735.0 
115.23333 344.0 
116.062523 945.0 
117.069016 10012.0 
117.207306 116.0 
118.076553 1288.0 
118.757782 282.0 
118.84079 98.0 
119.049622 4096.0 
119.085693 15003.0 
119.170448 87.0 
119.219536 151.0 
119.279617 61.0 
120.054489 228.0 
120.091255 814.0 
120.522179 205.0 
120.820259 101.0 
121.025658 107.0 
121.064194 10417.0 
121.101143 4999.0 
121.332108 64.0 
122.066353 772.0 
122.10733 125.0 
122.152222 290.0 
122.842865 175.0 
123.042244 1545.0 
123.079842 5518.0 
123.12104 145.0 
123.97731 103.0 
124.034615 202.0 
124.087494 385.0 
124.179092 161.0 
125.059738 788.0 
125.096802 431.0 
125.124809 333.0 
125.689072 189.0 
126.546791 83.0 
126.612511 141.0 
127.051849 168.0 
127.234612 304.0 
128.062592 4020.0 
128.406097 54.0 
128.532135 257.0 
128.768402 238.0 
129.069336 10941.0 
129.334305 79.0 
129.382263 166.0 
129.550934 263.0 
129.952057 125.0 
130.077011 3565.0 
130.175919 246.0 
130.449142 84.0 
130.82225 221.0 
131.027618 223.0 
131.049835 2135.0 
131.085022 29240.0 
132.056671 797.0 
132.089554 4053.0 
132.399551 268.0 
132.93605 85.0 
133.031036 142.0 
133.065048 10495.0 
133.101334 11827.0 
133.157333 201.0 
133.497055 65.0 
133.632507 289.0 
134.071182 2056.0 
134.105438 1511.0 
134.380753 253.0 
134.504654 76.0 
134.901566 75.0 
135.044937 1134.0 
135.080444 6657.0 
135.113495 350.0 
135.231796 113.0 
136.067688 477.0 
136.087036 796.0 
136.219254 60.0 
136.429565 94.0 
136.585648 305.0 
136.676651 198.0 
137.058609 2946.0 
137.095978 1451.0 
137.916367 158.0 
138.064835 471.0 
138.101517 573.0 
138.206711 200.0 
138.948608 181.0 
139.073853 336.0 
139.591843 252.0 
139.931961 267.0 
140.056656 407.0 
140.601593 175.0 
140.753098 189.0 
140.97876 173.0 
140.999298 305.0 
141.069916 7217.0 
141.5867 65.0 
141.839859 93.0 
142.077316 5272.0 
143.085266 33869.0 
143.242813 141.0 
143.678787 70.0 
144.035751 196.0 
144.057022 1105.0 
144.090729 5431.0 
144.373215 119.0 
144.838089 170.0 
144.93544 271.0 
144.997223 288.0 
145.064774 11276.0 
145.100861 24581.0 
145.137802 325.0 
145.19725 366.0 
145.321548 116.0 
145.576004 120.0 
146.071701 3285.0 
146.105957 3150.0 
147.079681 25344.0 
147.116058 3083.0 
147.161072 249.0 
147.194473 118.0 
147.5186 149.0 
147.674561 61.0 
148.006912 129.0 
148.084991 3308.0 
148.122101 210.0 
148.871643 322.0 
149.017456 175.0 
149.057983 2272.0 
149.096207 7905.0 
149.135162 426.0 
149.586716 134.0 
150.062683 442.0 
150.103104 1221.0 
150.616211 250.0 
151.035904 84.0 
151.074997 4574.0 
151.108017 664.0 
151.812286 159.0 
152.060425 459.0 
152.076538 395.0 
152.291031 187.0 
152.506104 116.0 
152.662842 101.0 
152.969498 147.0 
153.070496 3703.0 
153.605026 70.0 
153.696518 181.0 
154.077667 5282.0 
154.350647 395.0 
155.04631 549.0 
155.085327 22500.0 
155.296936 360.0 
155.345459 172.0 
155.66423 118.0 
156.033844 150.0 
156.064438 492.0 
156.090744 7424.0 
156.507996 215.0 
157.029327 119.0 
157.065781 5115.0 
157.100586 23832.0 
157.572601 77.0 
157.695618 172.0 
158.038528 234.0 
158.071945 8006.0 
158.106277 3862.0 
158.16748 127.0 
158.318085 138.0 
158.361679 114.0 
158.6194 270.0 
158.782425 171.0 
158.808456 222.0 
158.924194 100.0 
158.9505 92.0 
159.047287 1269.0 
159.080353 38862.0 
159.116608 19837.0 
159.270416 91.0 
159.313736 247.0 
159.447861 74.0 
159.848343 57.0 
159.921539 82.0 
160.086945 6075.0 
160.121185 3143.0 
160.205994 62.0 
160.277756 147.0 
160.430206 121.0 
160.565659 344.0 
160.978485 198.0 
161.058533 2776.0 
161.095322 14277.0 
161.132401 7796.0 
161.167557 106.0 
161.63382 282.0 
161.741379 127.0 
161.925049 226.0 
162.066971 331.0 
162.102509 5167.0 
162.137253 1510.0 
162.954025 121.0 
163.034164 144.0 
163.074615 2404.0 
163.111923 2570.0 
164.116211 677.0 
164.143723 173.0 
164.35112 64.0 
164.605042 223.0 
164.762909 288.0 
165.070114 5417.0 
165.091278 3254.0 
165.126831 140.0 
165.622055 231.0 
165.875809 130.0 
166.076752 4341.0 
166.536453 254.0 
167.08551 12677.0 
167.373276 120.0 
167.526398 91.0 
168.04985 323.0 
168.092056 5040.0 
168.557831 136.0 
168.707397 324.0 
169.010941 74.0 
169.067657 3323.0 
169.101074 33013.0 
169.287445 404.0 
169.493073 116.0 
169.95842 282.0 
170.074799 2923.0 
170.10553 6256.0 
170.755386 71.0 
171.080704 26837.0 
171.116776 22874.0 
171.230499 112.0 
171.582443 171.0 
171.7211 68.0 
172.087234 10633.0 
172.121536 3410.0 
172.576355 145.0 
173.02182 353.0 
173.060745 2992.0 
173.095795 30816.0 
173.132675 4885.0 
173.361069 127.0 
173.37648 180.0 
173.49353 139.0 
173.537506 114.0 
174.067276 903.0 
174.102936 4456.0 
174.136353 586.0 
174.45639 97.0 
174.484451 70.0 
175.044724 488.0 
175.07489 6182.0 
175.111816 4136.0 
175.147583 199.0 
175.232346 86.0 
175.292374 274.0 
175.37381 136.0 
175.478409 251.0 
175.548767 279.0 
175.789139 63.0 
175.995621 262.0 
176.080124 705.0 
176.115845 1469.0 
176.227264 228.0 
176.662918 206.0 
176.78923 81.0 
177.057541 606.0 
177.091812 5017.0 
177.123581 726.0 
177.729965 194.0 
177.937531 99.0 
178.094101 717.0 
178.675247 56.0 
179.053101 162.0 
179.086075 7072.0 
179.106476 2392.0 
179.412033 90.0 
179.52951 276.0 
179.602371 88.0 
180.024704 251.0 
180.093018 7063.0 
180.319885 200.0 
180.66449 100.0 
180.951172 258.0 
181.068878 1456.0 
181.101212 15270.0 
181.343811 82.0 
181.984421 138.0 
182.045441 345.0 
182.072189 2678.0 
182.108566 7704.0 
182.192459 61.0 
182.806808 55.0 
183.041458 287.0 
183.080429 8047.0 
183.116287 12595.0 
183.174591 54.0 
183.337479 112.0 
183.369965 171.0 
183.425186 72.0 
184.0569 289.0 
184.088089 9449.0 
184.120987 1222.0 
184.158401 549.0 
184.270386 104.0 
184.505142 59.0 
184.731049 346.0 
184.875229 81.0 
185.062012 1488.0 
185.096283 20605.0 
185.133011 11276.0 
185.245895 145.0 
185.288437 334.0 
185.60408 111.0 
185.799255 352.0 
186.063446 703.0 
186.101715 5993.0 
186.134369 1446.0 
186.22081 54.0 
186.696503 107.0 
186.916245 168.0 
187.074844 4372.0 
187.111542 50756.0 
187.147934 6943.0 
187.243652 62.0 
187.59642 54.0 
187.633041 55.0 
187.870438 156.0 
188.003021 295.0 
188.048157 223.0 
188.083923 464.0 
188.116516 8421.0 
188.156052 1270.0 
188.580704 132.0 
188.732651 276.0 
189.016525 91.0 
189.050629 176.0 
189.091125 2492.0 
189.12738 25280.0 
189.254974 69.0 
189.277802 149.0 
189.314407 65.0 
189.581116 56.0 
189.609787 201.0 
189.688202 82.0 
190.074829 1388.0 
190.100296 371.0 
190.130676 3716.0 
190.15979 186.0 
190.674042 168.0 
191.083557 1374.0 
191.104233 2072.0 
191.414108 235.0 
191.567322 89.0 
191.917892 295.0 
192.092651 1756.0 
192.726288 197.0 
193.099442 5820.0 
193.33223 121.0 
194.070908 772.0 
194.107605 2236.0 
194.50647 107.0 
194.595642 124.0 
194.681274 131.0 
194.806061 143.0 
195.079498 4690.0 
195.116974 18512.0 
195.34407 101.0 
195.479736 67.0 
195.776703 104.0 
196.039413 275.0 
196.086365 3403.0 
196.121902 3284.0 
197.037186 355.0 
197.095779 17107.0 
197.133194 17438.0 
198.103027 6318.0 
198.137421 4137.0 
198.408813 153.0 
198.616882 72.0 
198.777969 67.0 
198.947342 124.0 
198.985229 96.0 
199.044525 373.0 
199.078049 3124.0 
199.111725 21573.0 
199.147141 2301.0 
199.20224 221.0 
199.476181 118.0 
199.672134 111.0 
199.75087 228.0 
199.787491 90.0 
200.006699 140.0 
200.047592 209.0 
200.085205 1319.0 
200.116516 4295.0 
200.157181 292.0 
200.481216 98.0 
200.541977 258.0 
200.681076 86.0 
201.090714 4727.0 
201.126877 10328.0 
201.16954 327.0 
201.534439 87.0 
201.624771 307.0 
201.897583 139.0 
202.096069 593.0 
202.131271 1655.0 
202.52887 232.0 
202.811371 57.0 
202.951279 81.0 
203.034592 117.0 
203.105011 3250.0 
203.143478 1160.0 
204.095032 1607.0 
204.149323 214.0 
205.102539 5195.0 
205.675156 124.0 
206.106201 1573.0 
206.336395 206.0 
207.082062 1159.0 
207.115784 6419.0 
207.907242 298.0 
208.0896 3758.0 
208.121994 2105.0 
208.327499 216.0 
208.4263 102.0 
208.705246 195.0 
208.789856 221.0 
209.008636 60.0 
209.095352 6814.0 
209.132263 4121.0 
209.164276 399.0 
209.343262 260.0 
209.39122 69.0 
209.680695 174.0 
209.766022 152.0 
210.106155 3062.0 
210.134705 1161.0 
210.730453 369.0 
211.027496 191.0 
211.072388 1228.0 
211.112259 14441.0 
211.536728 119.0 
211.838898 71.0 
212.014053 307.0 
212.081589 1191.0 
212.117676 2073.0 
212.150238 350.0 
212.696915 134.0 
213.055954 174.0 
213.090118 3148.0 
213.127518 25322.0 
213.69017 59.0 
214.100372 1774.0 
214.130753 4620.0 
214.479095 132.0 
214.631958 126.0 
214.887421 140.0 
215.04245 279.0 
215.107254 16102.0 
215.143539 22381.0 
215.287949 228.0 
215.497879 55.0 
215.755005 122.0 
215.832977 67.0 
215.938339 96.0 
216.027084 242.0 
216.112717 2924.0 
216.146774 3546.0 
217.043167 64.0 
217.080841 1548.0 
217.122772 19476.0 
217.520966 202.0 
217.954865 331.0 
218.09111 624.0 
218.125473 4624.0 
218.164734 751.0 
218.250183 82.0 
218.362762 205.0 
219.107025 3434.0 
219.133286 1777.0 
219.233231 66.0 
220.08519 797.0 
220.121506 1644.0 
221.043091 97.0 
221.062515 160.0 
221.097336 2319.0 
221.128723 2302.0 
222.106232 1043.0 
222.136856 535.0 
222.833389 65.0 
223.078018 1344.0 
223.112213 16337.0 
223.147827 833.0 
223.214157 112.0 
223.346695 109.0 
223.811737 79.0 
224.056244 137.0 
224.116379 3249.0 
224.723221 219.0 
224.879257 121.0 
224.956436 190.0 
225.091614 9380.0 
225.128464 13070.0 
225.361221 186.0 
225.401703 418.0 
225.629272 78.0 
225.854477 76.0 
226.0952 1830.0 
226.131973 2852.0 
226.199066 62.0 
226.30986 173.0 
226.657379 167.0 
226.805939 96.0 
227.004776 123.0 
227.106339 45301.0 
227.484695 101.0 
227.827576 85.0 
227.875061 92.0 
228.002731 124.0 
228.110641 7031.0 
228.152313 884.0 
228.373505 135.0 
229.121994 9079.0 
229.845413 158.0 
230.124496 1678.0 
231.13707 4458.0 
232.120667 1969.0 
232.988754 218.0 
233.094711 1565.0 
233.11879 3038.0 
233.154846 2369.0 
233.213531 104.0 
234.120209 1974.0 
234.192368 132.0 
234.967834 97.0 
235.110611 4683.0 
235.142029 1588.0 
235.530853 140.0 
235.856247 100.0 
235.90538 55.0 
236.020233 244.0 
236.078552 145.0 
236.118301 1229.0 
236.153061 684.0 
236.684769 204.0 
237.096512 640.0 
237.128464 7366.0 
237.166595 197.0 
237.523392 101.0 
238.102448 907.0 
238.133865 465.0 
239.056992 401.0 
239.107712 4002.0 
239.143738 2570.0 
239.197311 161.0 
239.21759 226.0 
240.084229 102.0 
240.113937 518.0 
240.658005 219.0 
241.081406 1227.0 
241.123108 26015.0 
241.172241 155.0 
241.217316 160.0 
241.8125 121.0 
242.12468 4822.0 
242.180115 182.0 
242.656235 81.0 
242.966721 97.0 
243.063736 110.0 
243.138611 29009.0 
243.281052 61.0 
243.312668 92.0 
243.991028 68.0 
244.097366 464.0 
244.142212 5193.0 
244.236465 62.0 
244.340042 156.0 
244.882767 214.0 
245.067215 310.0 
245.117889 20912.0 
245.154205 8565.0 
245.311478 263.0 
245.672531 87.0 
245.773468 75.0 
245.843353 193.0 
246.031586 74.0 
246.062622 143.0 
246.119003 1796.0 
246.159805 1140.0 
247.133011 6252.0 
247.69812 180.0 
248.130981 1809.0 
248.584366 207.0 
249.086594 533.0 
249.128952 2096.0 
249.164108 1041.0 
250.133286 351.0 
251.108139 1478.0 
251.14212 2182.0 
251.183762 100.0 
251.456177 109.0 
251.487045 105.0 
251.536636 107.0 
251.93428 238.0 
252.110001 164.0 
252.156448 331.0 
253.072556 161.0 
253.121979 8081.0 
253.157379 163.0 
253.294174 275.0 
253.686615 75.0 
254.006577 186.0 
254.085449 167.0 
254.13063 1074.0 
254.159195 179.0 
254.446808 113.0 
255.137192 6458.0 
255.268021 55.0 
255.40239 89.0 
255.600235 163.0 
255.626328 197.0 
255.756226 66.0 
255.849731 159.0 
255.892639 140.0 
256.079956 159.0 
256.142395 1187.0 
256.947388 135.0 
257.093658 297.0 
257.124359 2368.0 
257.153107 1855.0 
257.502533 140.0 
257.754883 62.0 
257.873535 122.0 
258.094543 246.0 
258.142639 1580.0 
258.647064 72.0 
258.762817 75.0 
258.900452 61.0 
259.038116 178.0 
259.064819 578.0 
259.133789 42592.0 
259.541626 70.0 
259.583191 123.0 
259.653412 179.0 
259.80481 190.0 
259.836121 85.0 
259.864807 147.0 
259.97287 144.0 
260.138977 6816.0 
260.21048 392.0 
260.403595 271.0 
260.509888 202.0 
260.621582 256.0 
260.729462 108.0 
260.759521 64.0 
260.83371 194.0 
260.858093 297.0 
260.886871 255.0 
260.928711 119.0 
260.970795 212.0 
261.001709 343.0 
261.028473 425.0 
261.058136 679.0 
261.148834 365895.0 
261.230865 426.0 
261.277679 424.0 
261.335144 207.0 
261.369354 117.0 
261.397949 263.0 
261.492859 100.0 
261.559387 251.0 
261.628387 121.0 
261.690643 235.0 
261.715393 190.0 
261.870392 81.0 
262.05188 208.0 
262.153351 64924.0 
262.250946 70.0 
262.363403 220.0 
262.677032 120.0 
262.856934 81.0 
262.927155 110.0 
263.159424 5985.0 
263.329834 91.0 
263.372772 64.0 
263.447144 151.0 
263.825623 263.0 
263.884735 176.0 
263.978638 184.0 
264.043091 427.0 
264.106598 385.0 
264.162506 924.0 
264.57666 200.0 
264.602814 137.0 
264.747345 133.0 
265.122437 1735.0 
265.160583 814.0 
265.195068 158.0 
265.797028 198.0 
266.108917 285.0 
266.163879 289.0 
266.512451 127.0 
267.104736 164.0 
267.139313 2173.0 
268.127106 358.0 
269.0271 163.0 
269.116974 2431.0 
269.155731 1345.0 
269.233948 155.0 
270.131317 577.0 
270.158356 415.0 
270.43219 318.0 
270.860199 171.0 
271.039185 130.0 
271.134399 15439.0 
271.180389 191.0 
271.560455 124.0 
271.943481 169.0 
272.134094 1632.0 
272.291046 90.0 
272.417755 79.0 
273.093109 120.0 
273.155243 2528.0 
274.103546 140.0 
274.135803 602.0 
274.167542 352.0 
274.802216 65.0 
275.1073 126.0 
275.142944 1399.0 
275.541107 322.0 
276.105804 246.0 
276.145905 742.0 
276.481354 114.0 
276.582611 271.0 
277.089294 440.0 
277.125 1788.0 
277.151215 1231.0 
277.638031 124.0 
278.006287 111.0 
278.114746 148.0 
278.146362 242.0 
278.179504 242.0 
278.907104 93.0 
279.090668 242.0 
279.140503 2305.0 
279.91394 260.0 
280.144226 738.0 
281.072021 136.0 
281.107635 348.0 
281.1586 1147.0 
281.518585 214.0 
281.79303 86.0 
282.087219 54.0 
282.134125 1020.0 
283.133301 3194.0 
284.098114 182.0 
284.138428 946.0 
284.286713 143.0 
285.08667 264.0 
285.12204 604.0 
285.154999 1057.0 
286.1297 352.0 
286.175903 487.0 
287.132965 2690.0 
287.177673 275.0 
288.075256 177.0 
288.146423 796.0 
288.750549 261.0 
288.813171 73.0 
289.073761 129.0 
289.144073 8211.0 
290.078705 248.0 
290.158936 1273.0 
291.139069 1671.0 
291.935822 137.0 
291.974274 110.0 
292.160919 128.0 
292.20932 88.0 
292.318268 128.0 
292.40271 146.0 
293.12442 716.0 
293.156982 961.0 
293.192505 104.0 
293.393982 208.0 
294.138885 508.0 
294.189453 118.0 
295.135498 1585.0 
295.395935 260.0 
296.044678 136.0 
296.125977 402.0 
296.170685 250.0 
296.906769 158.0 
297.146088 1088.0 
298.141388 320.0 
298.173798 165.0 
299.143494 744.0 
299.175232 814.0 
300.151978 526.0 
301.157349 2283.0 
302.159668 973.0 
303.013611 99.0 
303.097717 108.0 
303.13913 398.0 
303.172241 1224.0 
303.219574 130.0 
304.107788 136.0 
304.1474 181.0 
304.192688 227.0 
304.435577 215.0 
305.151855 1468.0 
305.542511 134.0 
306.007965 160.0 
306.052277 162.0 
306.158844 705.0 
306.202148 134.0 
307.140869 767.0 
307.1698 346.0 
308.112823 183.0 
308.151428 348.0 
309.135834 888.0 
309.189178 392.0 
310.075256 156.0 
310.136566 228.0 
310.170105 337.0 
311.14032 433.0 
311.17511 120.0 
311.349518 294.0 
312.152222 338.0 
312.183258 596.0 
312.272675 65.0 
313.116394 136.0 
313.153076 1284.0 
314.129822 305.0 
315.138092 921.0 
315.176025 1090.0 
316.144867 61.0 
316.178833 69.0 
316.217621 148.0 
317.152771 1064.0 
317.190491 678.0 
318.108673 161.0 
318.166901 576.0 
319.165985 1257.0 
320.165314 501.0 
320.333771 247.0 
321.142395 303.0 
321.177979 438.0 
322.15979 608.0 
323.150146 1126.0 
324.160828 713.0 
324.194092 449.0 
324.572906 281.0 
325.094269 141.0 
325.158295 925.0 
325.191101 514.0 
326.127838 152.0 
326.15451 238.0 
327.14621 499.0 
327.179932 538.0 
328.18692 442.0 
329.117188 187.0 
329.149628 630.0 
329.187317 481.0 
329.224548 93.0 
330.143524 341.0 
330.179443 326.0 
330.609314 240.0 
330.881409 235.0 
331.125946 135.0 
331.168701 527.0 
331.746643 295.0 
332.136383 82.0 
332.187653 408.0 
333.109467 63.0 
333.155518 930.0 
333.188629 1121.0 
334.167419 196.0 
335.072083 96.0 
335.106079 112.0 
335.168304 1854.0 
336.145813 416.0 
336.172943 535.0 
337.079224 254.0 
337.16217 993.0 
337.19519 1045.0 
337.59549 245.0 
338.170776 726.0 
338.610962 202.0 
339.174622 765.0 
339.211212 290.0 
340.150116 533.0 
340.186401 537.0 
341.158447 489.0 
341.186554 471.0 
341.231934 132.0 
342.152802 432.0 
342.218384 321.0 
343.164185 564.0 
344.178314 763.0 
345.182281 1462.0 
346.075897 157.0 
346.186737 775.0 
347.133759 155.0 
347.164185 305.0 
347.192139 382.0 
348.172882 572.0 
349.065186 192.0 
349.125092 237.0 
349.1828 717.0 
349.220459 216.0 
350.172546 500.0 
350.231018 324.0 
350.584351 200.0 
350.756714 90.0 
351.134277 274.0 
351.176422 634.0 
351.498688 116.0 
352.132843 216.0 
352.183167 266.0 
352.210815 259.0 
352.490112 116.0 
353.152283 389.0 
354.198303 433.0 
355.167877 1214.0 
355.210724 328.0 
355.245697 366.0 
356.177826 520.0 
356.201721 424.0 
356.652435 358.0 
357.104431 347.0 
357.18045 1084.0 
357.22171 312.0 
357.552887 397.0 
358.090881 102.0 
358.141357 190.0 
358.175537 234.0 
359.046875 137.0 
359.204071 822.0 
360.189728 663.0 
360.532776 183.0 
361.11853 115.0 
361.184906 1139.0 
361.232239 222.0 
362.164948 343.0 
362.523926 221.0 
362.877563 156.0 
363.184967 699.0 
364.166168 322.0 
365.008514 92.0 
365.185822 921.0 
365.226837 424.0 
366.20993 125.0 
366.240173 172.0 
367.174988 421.0 
367.559906 127.0 
368.179199 203.0 
368.964569 275.0 
369.202423 757.0 
370.179321 463.0 
371.1698 302.0 
371.203705 426.0 
373.043915 139.0 
373.090576 144.0 
373.189423 463.0 
373.219727 362.0 
374.208466 301.0 
375.194794 1193.0 
376.209137 423.0 
377.170502 102.0 
377.213074 224.0 
378.189545 100.0 
378.227234 199.0 
378.547455 151.0 
379.198883 489.0 
380.170776 288.0 
381.183044 1307.0 
381.360291 114.0 
382.160126 128.0 
382.192444 325.0 
383.122894 81.0 
383.203278 2189.0 
383.238739 2932.0 
384.205261 940.0 
384.240173 536.0 
384.581512 325.0 
385.221436 1929.0 
386.210632 161.0 
386.857758 105.0 
386.900452 139.0 
386.946594 92.0 
387.197723 321.0 
387.229156 421.0 
388.167694 198.0 
388.202179 640.0 
388.240997 601.0 
388.533905 221.0 
389.209076 447.0 
389.815521 209.0 
389.856567 230.0 
390.198212 133.0 
391.172852 299.0 
393.219482 2978.0 
394.077637 131.0 
394.141815 136.0 
394.171814 125.0 
394.220947 826.0 
395.209564 397.0 
396.147034 153.0 
396.172699 260.0 
396.209106 267.0 
397.152374 132.0 
397.183563 433.0 
397.226593 723.0 
398.186646 215.0 
398.224731 98.0 
399.191895 710.0 
400.108185 205.0 
400.232574 179.0 
401.089966 97.0 
401.205261 1219.0 
401.248505 3354.0 
402.181732 181.0 
402.249786 1002.0 
402.921295 84.0 
403.221741 2688.0 
403.333679 67.0 
404.026306 261.0 
404.196716 151.0 
404.221802 157.0 
405.166931 132.0 
405.198273 344.0 
406.185394 377.0 
407.212311 192.0 
408.472687 246.0 
408.636993 127.0 
409.213989 123.0 
409.901398 161.0 
410.190582 182.0 
410.290375 126.0 
411.096222 109.0 
411.234833 10426.0 
412.235809 2920.0 
413.214417 1405.0 
414.215729 319.0 
414.893494 99.0 
415.179993 129.0 
415.231201 374.0 
416.240356 167.0 
417.205383 454.0 
418.219116 188.0 
419.173889 125.0 
419.230774 1150.0 
420.476593 230.0 
420.874695 176.0 
421.145172 305.0 
421.22052 6338.0 
422.162506 261.0 
422.226257 1221.0 
423.789062 188.0 
424.567505 252.0 
425.040039 111.0 
427.163818 119.0 
427.2258 388.0 
428.810211 195.0 
429.151947 531.0 
429.243835 20240.0 
429.376923 56.0 
430.05722 306.0 
430.140076 265.0 
430.246918 4517.0 
430.53241 153.0 
431.214081 689.0 
432.225983 465.0 
432.290771 277.0 
433.14389 241.0 
433.19696 1413.0 
433.23465 1462.0 
434.096222 346.0 
434.202484 218.0 
434.239014 191.0 
435.202545 275.0 
435.342987 96.0 
436.435486 335.0 
436.904327 176.0 
438.409546 84.0 
438.869751 124.0 
439.049683 157.0 
439.08847 120.0 
439.159393 476.0 
439.227844 20876.0 
439.448822 116.0 
440.230408 3337.0 
440.388062 69.0 
441.230865 705.0 
441.348389 76.0 
441.536255 56.0 
442.148956 177.0 
442.863831 103.0 
445.072571 207.0 
445.240112 219.0 
446.449524 163.0 
446.922272 93.0 
447.114563 253.0 
447.163208 195.0 
447.253876 24265.0 
447.660431 57.0 
447.815338 73.0 
448.153137 154.0 
448.258667 7250.0 
448.391205 76.0 
448.424469 204.0 
448.624908 136.0 
449.265564 113.0 
450.193665 219.0 
450.578766 256.0 
450.865234 126.0 
450.93335 88.0 
451.063324 113.0 
451.189941 144.0 
451.514801 64.0 
452.079102 271.0 
453.506744 116.0 
454.363861 217.0 
454.793854 76.0 
455.19101 58.0 
455.439697 194.0 
456.131897 115.0 
456.22583 111.0 
457.238708 46364.0 
457.655579 85.0 
457.751923 91.0 
457.789154 192.0 
458.103699 131.0 
458.242828 14584.0 
458.878937 88.0 
459.242706 832.0 
460.214966 169.0 
461.220947 123.0 
461.30072 60.0 
465.262604 629.0 
466.264709 156.0 
468.873871 60.0 
469.18045 68.0 
469.258118 114.0 
470.215149 214.0 
470.879517 131.0 
471.49054 106.0 
471.795074 108.0 
473.050293 153.0 
473.477966 171.0 
473.624451 81.0 
473.847168 139.0 
474.055145 186.0 
474.155579 95.0 
474.586395 66.0 
474.790955 72.0 
474.88324 141.0 
475.056793 222.0 
475.105347 900.0 
475.249268 181593.0 
475.472534 109.0 
475.746643 132.0 
475.985504 150.0 
476.077271 276.0 
476.119812 105.0 
476.253143 47765.0 
476.370056 108.0 
476.568054 127.0 
476.636658 84.0 
476.785217 127.0 
477.149109 172.0 
477.257263 1455.0 
477.360992 91.0 
477.488037 87.0 
477.581299 79.0 
477.692566 74.0 
478.01886 59.0 
478.299011 165.0 
479.003998 180.0 
479.14798 135.0 
479.194763 274.0 
479.834869 96.0 
479.91037 165.0 
480.425629 96.0 
480.930389 309.0 
488.270721 187.0 
490.108307 101.0 
490.345062 341.0 
490.55365 58.0 
490.59668 65.0 
490.634552 161.0 
490.778229 253.0 
491.116791 69.0 
491.523956 68.0 
491.681641 179.0 
491.733276 115.0 
491.832855 239.0 
491.92923 132.0 
491.990662 83.0 
492.062866 56.0 
492.323975 241.0 
492.411041 286.0 
492.45459 96.0 
492.505432 228.0 
492.549469 109.0 
492.789124 170.0 
492.931641 255.0 
492.961121 279.0 
493.051819 389.0 
493.118774 1173.0 
493.26004 257204.0 
493.37085 424.0 
493.595276 156.0 
493.642944 137.0 
493.737396 396.0 
493.853668 115.0 
494.052917 83.0 
494.116486 295.0 
494.264099 71670.0 
494.379089 332.0 
494.454712 248.0 
494.533478 93.0 
494.585236 223.0 
494.681976 85.0 
494.733978 253.0 
495.035553 89.0 
495.155975 155.0 
495.196686 114.0 
495.265991 3181.0 
495.437836 135.0 
495.569946 112.0 
496.042175 126.0 
496.155457 58.0 
496.388153 63.0 
496.502136 79.0 
496.731445 64.0 
496.771454 96.0 
496.883392 110.0 
497.041168 223.0 
497.246796 119.0 
497.285583 103.0 
497.315277 230.0 
497.368835 123.0 
497.414703 171.0 
497.507965 88.0 
497.65155 190.0 
497.945129 100.0 
498.010193 173.0 
498.259247 94.0 
499.091003 57.0 
506.439056 93.0 
506.780609 93.0 
508.452393 91.0 
511.274506 1033.0 
511.426727 122.0 
512.261841 260.0 
515.341125 55.0 
521.101013 155.0 
523.985535 72.0 
602.472046 66.0 
669.951477 97.0 
805.380737 81.0 
825.969238 97.0 
1192.930908 160.0 
1201.506714 321.0 
1369.376709 107.0 
1539.842896 81.0 
1568.307617 232.0 
1681.475952 74.0 
1729.467651 366.0 
1786.674805 315.0 
1798.617676 331.0 
1811.594604 155.0 
1842.249268 80.0 
1844.052002 153.0 
1923.798462 227.0 
1942.15918 342.0 
1964.118042 272.0 
1975.308716 259.0 
2001.943726 76.0 
END IONS

BEGIN IONS
TITLE=Scan Number: 251
PEPMASS=493.258
CHARGE=1+
MSLEVEL=2
FILENAME=E2_RE2_01_2758.mzXML
INSTRUMENT=ion trap
SCANS=251
SMILES=C[C@@]12CC[C@H](C[C@H]1[C@H](CCC3(O)[C@@H]4C[C@@H](CC[C@@]4(C)C=CC3=O)C(=C)C(O)=O)C(=O)C=C2)C(=C)C(O)=O
INCHIKEY=BSSWIRVAMSGQMG-RTTXQYISSA-N
70.043365 303.0 
75.522339 301.0 
78.002617 191.0 
79.053993 401.0 
81.069054 1086.0 
81.726776 242.0 
82.073799 200.0 
83.040428 388.0 
88.566536 95.0 
91.0373 169.0 
91.053963 1249.0 
93.020302 173.0 
93.070976 1090.0 
95.049896 1126.0 
95.085327 307.0 
97.063248 232.0 
103.053711 587.0 
105.068817 2764.0 
105.240166 288.0 
106.0439 189.0 
107.085876 1139.0 
108.090927 192.0 
109.066254 216.0 
109.099007 193.0 
111.046387 120.0 
111.085365 288.0 
111.134277 276.0 
112.073738 149.0 
114.06189 228.0 
115.054047 331.0 
116.052551 97.0 
117.069031 2136.0 
118.071312 324.0 
119.028816 259.0 
119.049805 728.0 
119.0858 2986.0 
120.083748 151.0 
121.063866 821.0 
121.102844 666.0 
122.068192 297.0 
123.0224 140.0 
123.041817 136.0 
123.062737 123.0 
123.081482 1515.0 
123.113739 123.0 
125.092773 168.0 
128.060013 419.0 
129.069168 673.0 
131.084732 5499.0 
131.113525 358.0 
132.085663 164.0 
133.065018 1182.0 
133.100769 1814.0 
134.110733 326.0 
134.973969 175.0 
135.046432 573.0 
135.08136 710.0 
137.060089 175.0 
137.092773 523.0 
139.055283 102.0 
139.700531 250.0 
141.070923 938.0 
142.076752 759.0 
143.085434 3927.0 
143.613647 163.0 
144.09198 734.0 
145.056122 524.0 
145.100693 3342.0 
145.867966 85.0 
146.073639 145.0 
146.103958 364.0 
147.080185 3412.0 
147.115799 1025.0 
148.085968 1099.0 
149.06076 483.0 
149.095169 2200.0 
150.100159 574.0 
151.076218 835.0 
151.307709 186.0 
152.080414 221.0 
153.054184 286.0 
153.554855 157.0 
154.074677 806.0 
155.035324 193.0 
155.085327 3313.0 
156.056839 310.0 
156.090363 1760.0 
156.900558 124.0 
157.068741 434.0 
157.100769 2422.0 
157.610886 140.0 
158.07341 772.0 
158.105881 542.0 
158.712646 240.0 
159.04184 251.0 
159.079971 3960.0 
159.116135 3377.0 
160.08313 691.0 
160.122223 417.0 
161.097198 1258.0 
161.132019 2232.0 
162.05954 493.0 
162.102509 634.0 
162.139984 399.0 
163.051575 281.0 
163.068069 375.0 
163.114273 630.0 
164.078491 152.0 
165.068344 1040.0 
166.077911 542.0 
167.085144 1321.0 
168.092834 504.0 
168.373322 118.0 
169.067627 712.0 
169.100098 4508.0 
170.021042 142.0 
170.067535 182.0 
170.106522 468.0 
170.986496 212.0 
171.080841 2261.0 
171.115707 3736.0 
172.086288 972.0 
172.121597 809.0 
172.649384 114.0 
173.060928 248.0 
173.097443 4268.0 
173.133331 547.0 
173.471848 124.0 
174.103622 1193.0 
175.074799 739.0 
175.11293 276.0 
176.919067 161.0 
177.092514 1029.0 
177.694748 92.0 
178.571075 242.0 
179.08699 621.0 
180.094604 617.0 
181.104111 1059.0 
182.106705 1280.0 
183.077698 1358.0 
183.117157 1329.0 
184.086502 1914.0 
184.122131 468.0 
185.095718 1275.0 
185.137939 919.0 
186.100693 1109.0 
186.135193 133.0 
186.567017 82.0 
187.033829 138.0 
187.077042 589.0 
187.111832 4780.0 
187.146667 1453.0 
187.441971 278.0 
188.08136 162.0 
188.122238 854.0 
188.156265 111.0 
188.204285 219.0 
188.952057 96.0 
189.092819 825.0 
189.127899 3815.0 
189.162659 320.0 
190.093948 388.0 
190.133682 498.0 
190.84816 302.0 
191.105591 700.0 
191.139908 235.0 
191.336777 222.0 
192.090683 241.0 
193.098389 401.0 
193.819916 366.0 
194.104324 206.0 
195.07811 911.0 
195.119965 830.0 
196.089523 703.0 
196.121094 337.0 
197.096451 1601.0 
197.13208 3537.0 
198.104294 1130.0 
198.136581 1163.0 
199.045258 130.0 
199.080414 447.0 
199.109802 2062.0 
199.145432 466.0 
200.116898 656.0 
200.149368 261.0 
201.093658 458.0 
201.128052 1130.0 
202.09436 119.0 
203.1064 145.0 
203.144928 100.0 
204.077576 142.0 
204.111771 106.0 
204.261292 191.0 
205.081619 128.0 
205.102722 454.0 
206.880463 272.0 
207.019104 217.0 
207.116409 511.0 
208.08902 552.0 
209.099564 1736.0 
210.108063 850.0 
211.105988 469.0 
212.084427 473.0 
213.076675 142.0 
213.126877 1531.0 
214.098801 438.0 
214.138596 162.0 
215.073929 172.0 
215.105576 1039.0 
215.142838 4458.0 
216.100037 116.0 
216.150284 860.0 
217.087265 207.0 
217.128021 131.0 
217.159897 333.0 
218.124084 249.0 
219.102509 455.0 
219.142563 132.0 
219.390732 274.0 
219.941605 183.0 
221.099335 167.0 
221.134552 148.0 
223.033752 111.0 
223.110077 419.0 
225.054398 269.0 
225.094025 2689.0 
225.127777 2540.0 
226.101471 520.0 
226.58992 109.0 
226.943512 90.0 
227.106537 8430.0 
227.145157 466.0 
228.11351 1013.0 
229.089157 153.0 
229.118744 432.0 
231.127533 611.0 
231.915192 126.0 
233.11441 360.0 
233.148178 234.0 
235.072327 120.0 
235.130722 264.0 
237.122299 524.0 
237.816849 271.0 
239.107101 340.0 
239.438416 99.0 
240.106293 148.0 
240.423904 214.0 
241.121399 2668.0 
242.106323 181.0 
243.139618 4116.0 
244.142914 674.0 
245.120438 1655.0 
245.156754 1791.0 
246.122177 130.0 
246.157471 327.0 
247.121521 303.0 
248.12088 122.0 
250.132919 118.0 
253.025085 203.0 
253.094513 112.0 
253.12645 1234.0 
254.112503 153.0 
255.107788 172.0 
257.146515 126.0 
257.362091 112.0 
259.129608 872.0 
260.146698 343.0 
260.274445 137.0 
261.148926 89433.0 
261.539246 72.0 
262.153625 15093.0 
262.215942 233.0 
262.944794 169.0 
263.157593 1241.0 
263.250366 113.0 
263.507751 78.0 
263.702454 96.0 
264.029541 89.0 
264.157532 589.0 
264.724121 98.0 
266.385925 129.0 
270.122101 131.0 
270.793121 120.0 
271.128204 720.0 
275.1427 137.0 
277.072845 185.0 
277.130829 172.0 
279.139954 234.0 
282.143524 150.0 
283.10849 137.0 
284.154419 133.0 
285.139313 211.0 
286.16571 152.0 
289.125305 200.0 
295.133179 222.0 
296.164032 164.0 
303.143494 148.0 
312.146057 146.0 
315.138123 149.0 
317.153595 116.0 
324.099487 131.0 
325.192383 100.0 
336.157379 115.0 
345.22522 106.0 
350.173187 169.0 
353.187195 182.0 
360.172791 291.0 
367.175781 134.0 
370.181061 183.0 
373.183563 137.0 
380.176086 117.0 
380.786713 193.0 
383.198486 107.0 
383.235535 447.0 
386.199127 146.0 
399.19281 224.0 
401.209625 238.0 
401.251373 500.0 
401.975494 204.0 
402.228546 144.0 
403.226105 106.0 
411.095062 171.0 
411.233765 388.0 
412.23819 98.0 
413.243652 202.0 
417.211182 278.0 
421.214111 191.0 
422.327362 149.0 
423.224854 91.0 
427.92038 121.0 
429.191345 332.0 
429.246368 857.0 
430.202393 172.0 
430.250153 220.0 
437.218353 102.0 
439.227478 1800.0 
440.229492 492.0 
447.244873 819.0 
448.25531 289.0 
457.239258 4294.0 
458.243103 1415.0 
460.644409 83.0 
472.714478 115.0 
474.283325 106.0 
474.521057 117.0 
474.726288 105.0 
475.004852 165.0 
475.13327 228.0 
475.249664 23342.0 
476.175232 181.0 
476.252258 4708.0 
478.56311 153.0 
479.425598 196.0 
480.055756 177.0 
492.942291 175.0 
493.259766 14957.0 
493.345703 207.0 
494.03186 110.0 
494.262085 4664.0 
495.264679 147.0 
496.904083 81.0 
1274.301147 101.0 
1681.555542 266.0 
1696.688232 176.0 
1947.739136 352.0 
END IONS

BEGIN IONS
TITLE=Scan Number: 252
PEPMASS=528.29602
CHARGE=1+
MSLEVEL=2
FILENAME=E2_RE2_01_2758.mzXML
INSTRUMENT=ion trap
SCANS=252
SMILES=C[C@@]12CC[C@H](C[C@H]1[C@H](CCC3(O)[C@@H]4C[C@@H](CC[C@@]4(C)C=CC3=O)C(=C)C(O)=O)C(=O)C=C2)C(=C)C(O)=O
INCHIKEY=BSSWIRVAMSGQMG-RTTXQYISSA-N
70.036446 445.0 
74.571198 308.0 
81.071541 284.0 
82.072464 185.0 
83.290878 310.0 
91.057243 693.0 
93.073074 699.0 
94.075523 226.0 
95.085045 524.0 
97.090775 148.0 
97.484627 258.0 
97.791862 179.0 
105.068176 792.0 
107.048393 173.0 
107.084435 1201.0 
108.052467 390.0 
109.10318 178.0 
111.035301 163.0 
111.080521 147.0 
113.200874 143.0 
116.607132 217.0 
117.069534 739.0 
119.047981 645.0 
119.084892 1353.0 
120.081657 406.0 
121.047905 192.0 
121.068329 114.0 
121.100029 453.0 
122.105988 131.0 
123.084015 232.0 
128.06514 224.0 
129.069321 1223.0 
130.073807 409.0 
131.060684 220.0 
131.085281 2088.0 
132.088852 629.0 
133.063248 834.0 
133.09877 580.0 
134.105774 536.0 
135.082062 582.0 
135.114136 163.0 
136.083801 267.0 
137.094009 423.0 
141.070053 559.0 
142.073395 134.0 
143.084412 2339.0 
144.090958 824.0 
145.062759 418.0 
145.100235 2296.0 
146.105255 576.0 
147.044739 135.0 
147.081482 915.0 
147.11441 828.0 
147.190475 147.0 
148.084244 244.0 
148.119781 134.0 
149.125732 212.0 
149.262466 86.0 
150.064178 200.0 
150.105118 214.0 
151.074844 238.0 
153.070389 324.0 
154.081314 379.0 
155.083023 1181.0 
156.761688 166.0 
157.060974 132.0 
157.09967 881.0 
157.717133 180.0 
158.071655 503.0 
158.11441 515.0 
159.080307 1072.0 
159.112991 1056.0 
160.088013 620.0 
160.121429 133.0 
160.95842 120.0 
161.056778 413.0 
161.096207 1262.0 
161.292236 145.0 
162.102737 351.0 
162.140808 152.0 
163.120163 128.0 
163.143585 123.0 
165.068146 179.0 
165.098724 228.0 
166.078278 772.0 
167.067276 192.0 
168.089737 333.0 
169.065796 496.0 
169.100739 2442.0 
169.218369 107.0 
169.30159 200.0 
169.394043 145.0 
170.068604 287.0 
170.104797 1122.0 
171.078949 1528.0 
171.115021 1257.0 
172.08844 831.0 
172.119278 632.0 
173.035965 136.0 
173.064285 404.0 
173.092392 1687.0 
173.133087 819.0 
173.557571 94.0 
174.10083 541.0 
174.137802 218.0 
174.702271 210.0 
175.072708 275.0 
175.111115 358.0 
176.900848 270.0 
177.085541 533.0 
177.208588 174.0 
178.119171 145.0 
179.081619 447.0 
180.090271 497.0 
181.101791 676.0 
182.071259 458.0 
182.108566 1363.0 
182.490189 83.0 
183.078323 463.0 
183.111542 874.0 
184.083954 470.0 
184.119003 264.0 
185.09343 1203.0 
185.131805 752.0 
185.525635 119.0 
186.103745 463.0 
187.049225 238.0 
187.112915 2279.0 
187.153366 143.0 
187.498749 125.0 
188.078217 110.0 
188.118607 301.0 
189.094254 320.0 
189.12822 1288.0 
190.133499 1211.0 
191.106888 166.0 
193.100204 453.0 
194.111404 165.0 
195.074387 402.0 
195.115784 957.0 
196.090958 336.0 
197.063431 132.0 
197.096115 754.0 
197.130524 1522.0 
198.101578 347.0 
198.138275 745.0 
198.366531 100.0 
199.089905 450.0 
199.111862 1275.0 
200.075729 82.0 
200.113663 706.0 
201.089615 666.0 
201.129501 843.0 
201.206421 275.0 
202.093536 341.0 
202.132126 221.0 
203.066299 129.0 
203.105057 198.0 
203.135422 284.0 
205.104034 163.0 
206.118378 304.0 
207.117111 107.0 
208.088196 412.0 
209.092438 571.0 
209.132767 336.0 
210.105652 139.0 
210.133255 108.0 
211.114029 1134.0 
212.11821 96.0 
213.085739 147.0 
213.129105 1886.0 
214.097672 121.0 
214.125046 103.0 
215.05777 93.0 
215.110245 1002.0 
215.141983 601.0 
216.141403 422.0 
217.095795 159.0 
217.123611 346.0 
217.151993 167.0 
218.071136 442.0 
218.121552 301.0 
218.158157 264.0 
219.102173 207.0 
219.125153 301.0 
220.118927 226.0 
223.116165 630.0 
224.11026 412.0 
225.056305 169.0 
225.090317 1252.0 
225.127747 1411.0 
225.631805 143.0 
226.133377 1226.0 
227.107544 6314.0 
227.443359 114.0 
228.112213 1335.0 
228.14595 285.0 
229.116821 1354.0 
230.120071 182.0 
231.130692 185.0 
231.77211 183.0 
232.148315 229.0 
233.090149 288.0 
234.158615 115.0 
235.114227 374.0 
235.328491 224.0 
236.081863 187.0 
237.126862 136.0 
238.134003 248.0 
238.26947 83.0 
239.10704 767.0 
239.140533 243.0 
241.088745 149.0 
241.119583 594.0 
241.300507 167.0 
242.121872 267.0 
243.078308 208.0 
243.13916 1991.0 
244.139618 2221.0 
245.119461 4240.0 
245.815353 90.0 
246.087906 118.0 
246.121155 1214.0 
246.19046 108.0 
247.112396 203.0 
247.139511 246.0 
248.140228 215.0 
249.124741 329.0 
250.130859 172.0 
251.129761 325.0 
253.07579 118.0 
253.125153 1386.0 
254.117111 191.0 
255.13649 281.0 
257.148132 238.0 
259.132629 1887.0 
259.753723 136.0 
260.1409 499.0 
260.500427 274.0 
260.927338 85.0 
261.071411 205.0 
261.148926 37241.0 
261.250092 256.0 
261.478546 142.0 
261.875549 122.0 
261.957764 114.0 
262.00415 221.0 
262.153076 14164.0 
263.157562 4524.0 
263.755676 205.0 
263.930939 104.0 
264.161285 861.0 
265.16925 556.0 
266.134003 252.0 
271.133545 1217.0 
272.144653 98.0 
273.125336 96.0 
277.129059 449.0 
279.096375 247.0 
279.177887 140.0 
280.147308 178.0 
281.069489 285.0 
281.156555 320.0 
287.099579 133.0 
287.137268 500.0 
289.069885 245.0 
289.146912 389.0 
291.054749 131.0 
293.175537 292.0 
294.177032 438.0 
295.194702 360.0 
296.195251 2032.0 
297.201813 364.0 
299.155365 160.0 
301.157104 235.0 
302.060577 149.0 
302.135284 140.0 
308.175079 133.0 
313.170288 346.0 
314.127197 96.0 
315.179626 200.0 
319.198273 189.0 
324.150543 88.0 
327.14328 100.0 
327.180695 107.0 
328.183167 89.0 
328.392426 186.0 
341.142456 105.0 
341.188141 188.0 
342.192108 124.0 
343.216949 154.0 
349.123383 193.0 
351.10849 123.0 
353.27124 230.0 
357.216675 201.0 
358.075195 197.0 
358.812744 217.0 
360.128204 139.0 
362.496521 116.0 
362.769653 172.0 
364.149872 144.0 
366.146423 169.0 
368.108246 138.0 
379.22818 160.0 
382.154053 154.0 
383.203186 233.0 
384.246735 127.0 
385.223541 284.0 
393.214417 139.0 
394.218475 107.0 
395.237061 217.0 
398.179108 107.0 
401.243622 116.0 
402.246613 100.0 
403.217468 454.0 
411.191956 306.0 
411.236481 837.0 
412.235779 286.0 
421.211792 272.0 
422.213806 168.0 
429.247772 665.0 
430.041168 180.0 
430.241241 504.0 
433.210541 129.0 
433.247528 163.0 
439.232697 1059.0 
441.245789 101.0 
443.245209 110.0 
443.296906 191.0 
447.217957 128.0 
447.257172 1111.0 
448.264069 297.0 
457.185486 128.0 
457.236877 2755.0 
458.238831 660.0 
459.23999 278.0 
461.688904 191.0 
464.2547 177.0 
470.696014 270.0 
471.856445 90.0 
472.883698 129.0 
473.436768 177.0 
475.129913 199.0 
475.249817 14749.0 
475.384644 175.0 
476.249207 4383.0 
477.260956 1844.0 
478.044952 130.0 
478.263062 790.0 
489.935425 92.0 
492.409332 127.0 
492.824707 176.0 
493.109314 397.0 
493.176605 149.0 
493.260742 15283.0 
494.264862 7002.0 
494.396332 144.0 
495.268219 1894.0 
496.235687 89.0 
496.278839 1134.0 
510.290314 1147.0 
510.968475 94.0 
511.277252 165.0 
511.331055 215.0 
513.237488 174.0 
513.304504 105.0 
528.309326 986.0 
529.263611 119.0 
529.309448 572.0 
529.356628 165.0 
1751.721313 132.0 
END IONS

BEGIN IONS
TITLE=Scan Number: 254
PEPMASS=551.17603
CHARGE=1+
MSLEVEL=2
FILENAME=E2_RE2_01_2758.mzXML
INSTRUMENT=ion trap
SCANS=254
SMILES=COC(=O)C[C@H]1\C(=C\COC(=O)\C=C\C2=CC=CC=C2)[C@H](O[C@@H]3O[C@H](CO)[C@@H](O)[C@H](O)[C@H]3O)OC=C1C(O)=O
INCHIKEY=JGHUOJAZXGSFRI-HOWDAYCMSA-N
83.581848 75.0 
91.052536 347.0 
95.013908 234.0 
103.054527 8658.0 
104.058334 963.0 
105.062653 195.0 
106.840904 128.0 
107.054512 265.0 
107.909622 242.0 
111.045479 1759.0 
112.046844 605.0 
117.626022 176.0 
118.036636 140.0 
121.028252 2338.0 
122.029366 150.0 
123.006676 594.0 
127.040916 232.0 
131.00145 218.0 
131.0495 48234.0 
131.104385 124.0 
131.617813 137.0 
132.052673 4076.0 
132.886627 141.0 
133.056595 161.0 
135.042236 1089.0 
139.040604 519.0 
141.018555 177.0 
147.04834 165.0 
149.024185 10340.0 
149.062607 340.0 
149.206406 77.0 
150.029648 978.0 
151.153854 157.0 
153.055756 2303.0 
154.055313 112.0 
155.034637 167.0 
163.040329 2049.0 
164.040619 375.0 
165.05632 135.0 
166.629791 83.0 
167.034882 6988.0 
167.413849 158.0 
168.036835 676.0 
173.018616 171.0 
177.060028 156.0 
178.058044 146.0 
180.971191 245.0 
181.049942 18628.0 
181.257309 208.0 
181.471954 113.0 
182.052048 1439.0 
182.42424 89.0 
183.053619 152.0 
183.361328 121.0 
189.050278 216.0 
191.03598 3723.0 
191.142883 161.0 
192.042526 107.0 
194.127472 267.0 
205.052109 602.0 
206.053757 405.0 
209.044647 399.0 
223.060608 5345.0 
224.06694 629.0 
241.073013 93.0 
251.078705 305.0 
288.833618 265.0 
297.07373 1712.0 
298.073578 401.0 
311.090759 1684.0 
312.100372 255.0 
331.086334 373.0 
371.115448 2397.0 
386.124023 122.0 
492.167755 115.0 
520.297058 142.0 
532.171509 261.0 
551.338196 142.0 
552.31427 210.0 
553.131836 136.0 
1092.903564 296.0 
1729.39978 224.0 
1899.472168 256.0 
END IONS

BEGIN IONS
TITLE=Scan Number: 255
PEPMASS=568.203
CHARGE=1+
MSLEVEL=2
FILENAME=E2_RE2_01_2758.mzXML
INSTRUMENT=ion trap
SCANS=255
SMILES=COC(=O)C[C@H]1\C(=C\COC(=O)\C=C\C2=CC=CC=C2)[C@H](O[C@@H]3O[C@H](CO)[C@@H](O)[C@H](O)[C@H]3O)OC=C1C(O)=O
INCHIKEY=JGHUOJAZXGSFRI-HOWDAYCMSA-N
76.459763 293.0 
81.037689 240.0 
84.117714 257.0 
85.028778 409.0 
85.086723 196.0 
87.099777 198.0 
91.043861 143.0 
95.01265 329.0 
95.05056 805.0 
95.491821 228.0 
97.02626 439.0 
102.048561 411.0 
103.05442 10224.0 
104.056351 184.0 
105.008308 187.0 
105.04277 518.0 
107.049065 1387.0 
108.140404 171.0 
109.066383 133.0 
111.044189 4506.0 
112.042244 400.0 
112.992645 151.0 
114.655563 333.0 
117.033562 335.0 
117.636391 177.0 
118.015366 139.0 
118.040367 110.0 
119.012695 153.0 
119.048958 165.0 
120.064247 197.0 
121.029053 3583.0 
121.435966 373.0 
121.842476 267.0 
122.028854 368.0 
122.317513 239.0 
122.986427 187.0 
123.008453 945.0 
123.044601 323.0 
124.918045 221.0 
127.038681 236.0 
130.041016 252.0 
130.85733 419.0 
131.049088 93401.0 
131.197891 94.0 
132.019897 221.0 
132.052734 8099.0 
132.676636 133.0 
133.022263 182.0 
133.053543 294.0 
133.1875 254.0 
133.209351 152.0 
133.706146 158.0 
135.043747 2129.0 
137.05957 575.0 
139.0401 1281.0 
141.020035 485.0 
144.080063 139.0 
145.032196 378.0 
145.287994 160.0 
147.042633 210.0 
148.727524 187.0 
148.982544 162.0 
149.024048 20494.0 
149.060745 793.0 
149.13269 447.0 
149.946823 85.0 
150.026291 1725.0 
150.404144 136.0 
151.033981 329.0 
151.076294 113.0 
153.054062 4059.0 
154.010193 269.0 
154.058563 685.0 
155.002762 96.0 
155.032425 312.0 
155.311798 164.0 
162.016251 240.0 
163.039383 3139.0 
164.04454 448.0 
165.057144 182.0 
166.819916 193.0 
167.034866 9912.0 
167.072754 152.0 
167.141953 139.0 
168.037979 1081.0 
169.042679 191.0 
170.591064 230.0 
173.027222 183.0 
175.011078 170.0 
177.055618 715.0 
179.073242 206.0 
179.756027 104.0 
180.894318 109.0 
181.049789 43065.0 
181.272003 159.0 
181.520523 160.0 
182.016251 108.0 
182.054123 2634.0 
182.976349 110.0 
183.055695 374.0 
183.091202 108.0 
183.466522 103.0 
185.01651 119.0 
187.000793 235.0 
190.059219 171.0 
190.656372 258.0 
191.033722 6677.0 
191.679718 210.0 
192.037811 638.0 
192.119904 153.0 
192.350021 100.0 
195.070129 428.0 
196.340759 241.0 
199.031067 112.0 
203.001022 423.0 
205.05101 1832.0 
206.051682 177.0 
208.115677 151.0 
209.044098 1381.0 
210.041794 130.0 
211.031479 738.0 
212.980453 148.0 
213.125961 151.0 
215.019135 373.0 
215.071274 119.0 
221.012726 383.0 
222.81749 319.0 
223.060471 18433.0 
223.25386 181.0 
223.334442 111.0 
224.061935 1164.0 
225.861969 181.0 
230.13855 145.0 
231.016418 173.0 
239.018799 689.0 
241.073181 1538.0 
242.046082 136.0 
242.081436 146.0 
243.01416 147.0 
253.012039 139.0 
255.078125 173.0 
259.053253 333.0 
265.004486 209.0 
267.018829 132.0 
271.046143 125.0 
279.018494 264.0 
279.04892 268.0 
280.223175 88.0 
295.047394 106.0 
296.908173 230.0 
297.01178 719.0 
297.079987 2837.0 
298.075043 286.0 
300.252838 135.0 
301.109009 108.0 
309.060913 121.0 
311.095734 2349.0 
312.085876 274.0 
315.019409 163.0 
323.046875 129.0 
333.0495 161.0 
334.085205 332.0 
355.054413 142.0 
357.101746 118.0 
370.285217 112.0 
370.669586 109.0 
371.114319 5207.0 
371.172546 102.0 
371.7034 124.0 
372.111298 563.0 
385.942078 102.0 
386.103271 761.0 
387.072632 105.0 
391.097839 229.0 
393.068665 215.0 
393.181915 114.0 
397.059265 140.0 
399.104218 168.0 
401.089508 217.0 
408.095123 2138.0 
419.093353 129.0 
463.177307 108.0 
471.100922 141.0 
515.166809 200.0 
565.141418 147.0 
568.381897 210.0 
623.149231 98.0 
1548.502197 158.0 
1559.231689 285.0 
1695.94873 212.0 
1927.281494 315.0 
END IONS

BEGIN IONS
TITLE=Scan Number: 262
PEPMASS=253.10699
CHARGE=1+
MSLEVEL=2
FILENAME=G2_GG2_01_2719.mzXML
INSTRUMENT=ion trap
SCANS=262
SMILES=COC(=O)\C=C\C1=CC(OC)=C(OC)C(OC)=C1
INCHIKEY=KLXHCGFNNUQTEY-AATRIKPKSA-N
77.034706 143.0 
79.052895 929.0 
82.401932 268.0 
90.044212 405.0 
91.053001 969.0 
92.025764 434.0 
92.05452 153.0 
93.029716 420.0 
94.044708 188.0 
94.076607 158.0 
95.044266 258.0 
96.22216 198.0 
102.043861 943.0 
103.054649 1022.0 
104.01976 349.0 
104.062279 124.0 
105.043991 401.0 
105.114685 225.0 
106.038841 195.0 
107.048347 1244.0 
108.045479 374.0 
108.947906 177.0 
111.044098 128.0 
114.044441 172.0 
116.511299 226.0 
117.017143 181.0 
117.031616 262.0 
117.496956 199.0 
118.039429 336.0 
119.018761 354.0 
119.055969 121.0 
120.022148 504.0 
120.053932 264.0 
121.064987 194.0 
123.043831 240.0 
123.319771 326.0 
123.540421 196.0 
123.914642 269.0 
124.995247 176.0 
126.013222 153.0 
130.041077 643.0 
131.052292 1299.0 
132.021683 508.0 
132.05687 705.0 
133.027206 826.0 
133.049561 290.0 
134.035019 119.0 
134.957108 190.0 
135.0448 2632.0 
138.031219 419.0 
145.038101 399.0 
146.005692 170.0 
146.02562 207.0 
147.044418 3558.0 
147.083908 208.0 
147.398865 88.0 
148.008774 141.0 
148.047287 992.0 
149.019836 161.0 
149.058563 835.0 
150.067291 462.0 
151.07489 335.0 
153.055405 235.0 
157.043518 147.0 
159.046234 365.0 
160.050308 295.0 
161.022522 453.0 
161.056183 530.0 
162.031143 446.0 
162.067917 3044.0 
162.991821 297.0 
163.0392 3574.0 
163.07196 322.0 
165.091553 124.0 
170.036514 159.0 
171.045593 215.0 
174.039551 237.0 
175.037033 320.0 
176.046677 553.0 
177.055435 1301.0 
178.059555 2223.0 
179.06781 623.0 
180.412598 130.0 
184.146759 124.0 
188.044861 139.0 
190.062927 6479.0 
190.987015 184.0 
191.034576 1887.0 
191.068985 1063.0 
192.038925 344.0 
193.050919 242.0 
193.086197 3068.0 
194.06459 229.0 
195.065231 388.0 
195.977768 131.0 
196.069656 227.0 
197.369064 146.0 
205.046738 397.0 
206.058182 2954.0 
207.066284 731.0 
211.097672 2305.0 
212.124786 180.0 
221.081131 16689.0 
222.086609 1235.0 
223.754379 177.0 
1664.522827 154.0 
1941.400757 194.0 
END IONS

BEGIN IONS
TITLE=Scan Number: 264
PEPMASS=235.16901
CHARGE=1+
MSLEVEL=2
FILENAME=G2_GG2_01_2719.mzXML
INSTRUMENT=ion trap
SCANS=264
SMILES=CC1(O)CCCC2(C)CCC(CC12)C(=C)C(O)=O
INCHIKEY=FXKCXGBBUBCRPU-UHFFFAOYSA-N
77.036926 319.0 
77.893822 183.0 
78.041382 246.0 
79.053734 3236.0 
80.057159 329.0 
81.068848 5707.0 
81.156662 60.0 
81.628937 210.0 
82.070961 619.0 
90.777374 155.0 
91.053802 10082.0 
91.120659 72.0 
91.65506 96.0 
92.019722 184.0 
92.060722 310.0 
93.028824 237.0 
93.049561 156.0 
93.069954 7092.0 
93.134857 85.0 
94.072304 333.0 
94.394386 173.0 
95.049423 1596.0 
95.084587 2625.0 
96.091614 254.0 
97.064751 393.0 
99.078644 204.0 
103.052864 763.0 
104.055603 158.0 
105.043198 3998.0 
105.069237 5925.0 
105.123199 192.0 
106.049774 407.0 
106.073227 171.0 
107.064308 219.0 
107.085236 5180.0 
107.259506 180.0 
108.087532 831.0 
109.067551 596.0 
109.097694 1443.0 
110.101204 80.0 
110.890991 187.0 
111.077194 188.0 
115.053375 845.0 
116.056137 374.0 
117.070053 1735.0 
119.058098 1198.0 
119.084618 6605.0 
120.092247 384.0 
121.058815 312.0 
121.101387 1553.0 
121.414627 60.0 
123.080818 200.0 
123.114548 191.0 
124.118309 155.0 
126.045921 179.0 
126.066612 257.0 
128.065582 573.0 
128.402435 60.0 
129.068481 978.0 
129.701569 56.0 
130.075668 180.0 
131.047363 213.0 
131.087204 1632.0 
132.094711 137.0 
133.065414 483.0 
133.100906 4767.0 
134.105362 1130.0 
135.080322 6655.0 
135.116989 795.0 
136.06752 253.0 
137.052094 184.0 
137.100601 160.0 
137.13121 167.0 
139.074341 598.0 
140.076355 164.0 
141.069077 340.0 
142.075806 654.0 
143.086456 2490.0 
144.088806 617.0 
145.054886 136.0 
145.096436 554.0 
147.079407 2671.0 
147.115311 2774.0 
147.331604 91.0 
148.084106 402.0 
148.119888 314.0 
149.052094 187.0 
149.094345 663.0 
149.133438 520.0 
150.141464 177.0 
151.077667 779.0 
151.1073 439.0 
153.090302 2998.0 
154.079041 170.0 
154.09906 117.0 
155.052872 279.0 
155.087372 250.0 
156.048752 250.0 
156.087708 619.0 
157.102493 2871.0 
158.108765 423.0 
159.082062 115.0 
159.116974 1350.0 
160.087006 133.0 
160.12323 510.0 
161.096466 2319.0 
161.133041 3384.0 
161.542847 65.0 
162.134811 173.0 
162.959946 158.0 
163.1483 4246.0 
163.698837 160.0 
164.114716 136.0 
164.154755 605.0 
165.09288 351.0 
165.537964 165.0 
165.735199 55.0 
167.081039 174.0 
167.195175 191.0 
168.09552 201.0 
169.07309 149.0 
169.099838 300.0 
170.106094 190.0 
171.115417 633.0 
172.122147 377.0 
173.098038 159.0 
173.132889 865.0 
175.111725 649.0 
175.1483 617.0 
176.412094 78.0 
179.108368 861.0 
184.124512 145.0 
187.138779 137.0 
189.093964 280.0 
189.123657 361.0 
189.164017 13228.0 
189.804428 150.0 
190.165359 820.0 
190.468002 143.0 
191.174911 213.0 
193.114532 116.0 
197.137985 338.0 
197.763672 136.0 
199.148483 6876.0 
199.579071 105.0 
200.155624 560.0 
201.408508 123.0 
206.912827 63.0 
207.17627 142.0 
215.334137 84.0 
217.053528 165.0 
217.116043 71.0 
217.157486 12294.0 
217.796371 258.0 
218.162598 759.0 
219.593857 58.0 
235.023361 140.0 
235.170197 2484.0 
236.175385 224.0 
1395.445557 383.0 
1539.817993 95.0 
1591.544067 133.0 
1598.598022 115.0 
1636.070923 321.0 
1719.834717 344.0 
1773.774414 140.0 
1929.524658 343.0 
1929.716797 137.0 
1959.38623 246.0 
END IONS

BEGIN IONS
TITLE=Scan Number: 265
PEPMASS=270.207
CHARGE=1+
MSLEVEL=2
FILENAME=G2_GG2_01_2719.mzXML
INSTRUMENT=ion trap
SCANS=265
SMILES=CC1(O)CCCC2(C)CCC(CC12)C(=C)C(O)=O
INCHIKEY=FXKCXGBBUBCRPU-UHFFFAOYSA-N
79.053291 2792.0 
80.055946 145.0 
81.067947 5697.0 
82.072159 318.0 
83.049728 193.0 
91.053848 3190.0 
92.058128 309.0 
92.55661 398.0 
92.649887 117.0 
93.034004 846.0 
93.070145 5424.0 
95.046761 442.0 
95.085587 4007.0 
97.059532 243.0 
102.042923 189.0 
103.052681 140.0 
105.045113 1495.0 
105.068802 4027.0 
106.072166 162.0 
107.086121 5269.0 
107.457916 227.0 
108.020973 215.0 
108.090172 456.0 
109.065384 312.0 
109.099327 1591.0 
111.044701 116.0 
111.081116 363.0 
113.330994 96.0 
115.052376 436.0 
115.206429 123.0 
116.057991 155.0 
117.068954 1227.0 
118.076851 270.0 
119.061134 1010.0 
119.084259 4580.0 
120.054436 219.0 
120.089005 419.0 
121.027748 361.0 
121.063507 409.0 
121.101883 1439.0 
123.045868 155.0 
123.077339 655.0 
123.114174 118.0 
124.121529 257.0 
125.060158 456.0 
128.061783 371.0 
128.533417 231.0 
129.07402 409.0 
131.084457 990.0 
132.087646 189.0 
133.055115 244.0 
133.100571 6250.0 
133.521255 86.0 
135.080292 4913.0 
137.062042 150.0 
137.097565 306.0 
137.134018 219.0 
138.103317 202.0 
139.074722 544.0 
140.07309 336.0 
141.090179 172.0 
142.075287 983.0 
143.051315 128.0 
143.083527 1832.0 
144.087509 298.0 
145.098572 643.0 
147.061874 658.0 
147.079727 1045.0 
147.116669 3757.0 
148.083725 317.0 
148.121231 677.0 
149.094498 239.0 
149.132477 1075.0 
151.072556 268.0 
151.10939 140.0 
153.091415 4429.0 
154.077286 152.0 
155.055344 136.0 
155.089645 188.0 
155.466675 228.0 
156.08432 225.0 
157.100204 1393.0 
158.10582 100.0 
159.118042 2193.0 
161.003067 182.0 
161.094788 1655.0 
161.132324 1558.0 
163.148743 1961.0 
165.087646 793.0 
166.091843 141.0 
169.110703 260.0 
170.108856 294.0 
171.116776 418.0 
172.115067 146.0 
172.672165 119.0 
173.129578 360.0 
174.135941 270.0 
174.744934 185.0 
175.111053 303.0 
175.148315 562.0 
179.105362 1627.0 
184.124039 142.0 
187.119339 233.0 
188.591797 141.0 
189.065109 191.0 
189.163666 16535.0 
189.213226 124.0 
190.168182 1416.0 
191.51944 87.0 
193.079163 134.0 
193.125076 217.0 
199.147629 5944.0 
200.148254 136.0 
202.131714 113.0 
207.175003 110.0 
213.567398 162.0 
216.627182 83.0 
217.157715 15478.0 
217.31073 99.0 
217.465652 88.0 
218.163651 1682.0 
219.138168 148.0 
219.796722 131.0 
224.107681 114.0 
235.068665 304.0 
235.130066 194.0 
235.167831 9413.0 
236.172104 1407.0 
239.449356 88.0 
252.193909 275.0 
1764.018921 141.0 
1905.068726 198.0 
1988.859863 83.0 
END IONS

BEGIN IONS
TITLE=Scan Number: 266
PEPMASS=301.10699
CHARGE=1+
MSLEVEL=2
FILENAME=G2_GG2_01_2719.mzXML
INSTRUMENT=ion trap
SCANS=266
SMILES=COC1=CC=C(CC2COC3=CC(O)=CC(O)=C3C2=O)C=C1
INCHIKEY=IERGURVELWCYAW-UHFFFAOYSA-N
73.791862 88.0 
74.301918 309.0 
74.386383 326.0 
77.037781 1879.0 
78.045494 2487.0 
79.046761 371.0 
81.03421 114.0 
91.053307 4514.0 
91.378632 182.0 
92.062447 128.0 
93.068687 1124.0 
93.091934 491.0 
95.049606 1602.0 
97.792076 301.0 
97.917328 188.0 
103.053291 359.0 
105.04509 4890.0 
106.041084 1462.0 
106.389793 260.0 
107.082008 166.0 
112.258194 313.0 
117.122246 196.0 
119.050926 133.0 
120.707191 197.0 
121.065063 154950.0 
121.108444 186.0 
121.329292 105.0 
122.068718 12461.0 
122.152382 107.0 
122.185738 136.0 
122.239563 117.0 
123.096397 188.0 
130.501144 90.0 
135.042725 214.0 
139.02951 175.0 
139.05513 115.0 
149.131332 279.0 
151.034058 217.0 
153.018417 260.0 
155.017502 133.0 
163.00444 165.0 
163.039581 214.0 
164.0383 136.0 
167.201538 286.0 
169.122986 189.0 
177.903442 223.0 
179.032455 2039.0 
180.042664 177.0 
183.945114 130.0 
191.037857 450.0 
192.035355 281.0 
193.040573 1322.0 
223.084763 177.0 
255.97081 132.0 
284.100281 133.0 
301.107025 1061.0 
301.229462 151.0 
302.068237 156.0 
302.117401 254.0 
767.466431 243.0 
1180.647217 168.0 
1436.028931 212.0 
1506.151001 216.0 
1534.799194 244.0 
1642.6604 320.0 
1715.248657 327.0 
1723.673218 160.0 
1796.523438 181.0 
1872.432251 252.0 
1936.297974 209.0 
1963.064575 300.0 
1967.720947 333.0 
END IONS

BEGIN IONS
TITLE=Scan Number: 267
PEPMASS=327.17999
CHARGE=1+
MSLEVEL=2
FILENAME=C9_GC9_01_2804.mzXML
INSTRUMENT=ion trap
SCANS=267
SMILES=CC(C)CC(=O)OC1C(C(C)C)C(OC(C)=O)C=C(CO)C1=O
INCHIKEY=IVEJMWCGEFICJC-UHFFFAOYSA-N
76.128189 350.0 
76.803391 112.0 
77.016983 134.0 
77.038055 976.0 
79.0233 169.0 
79.054314 2042.0 
81.035042 2563.0 
81.070755 1592.0 
81.316505 326.0 
82.828911 214.0 
83.048973 191.0 
85.04689 111.0 
85.065186 1029.0 
86.321648 109.0 
88.099487 290.0 
90.289742 172.0 
90.50412 231.0 
90.980141 128.0 
91.055183 5173.0 
92.060516 408.0 
92.884193 90.0 
92.958313 159.0 
93.013718 231.0 
93.070831 1811.0 
93.842064 215.0 
94.07653 271.0 
94.838486 115.0 
95.023911 138.0 
95.050064 13409.0 
95.088646 982.0 
95.128227 216.0 
95.168465 86.0 
96.055916 1279.0 
96.466942 78.0 
97.04493 230.0 
97.067657 708.0 
99.496834 104.0 
103.052261 558.0 
103.076576 496.0 
104.063377 1781.0 
104.622391 135.0 
105.046219 5716.0 
105.238983 278.0 
105.345978 157.0 
106.04924 381.0 
106.07515 141.0 
106.634537 77.0 
107.050812 2315.0 
107.087227 1101.0 
108.089783 242.0 
109.003387 223.0 
109.028763 828.0 
109.065979 1568.0 
109.103149 3772.0 
110.104393 192.0 
110.851868 135.0 
111.044518 3565.0 
111.081429 227.0 
111.121605 172.0 
111.244087 124.0 
115.057541 285.0 
117.069626 1785.0 
118.055496 179.0 
119.060097 1790.0 
119.086029 12185.0 
119.260468 162.0 
120.091606 361.0 
120.815704 197.0 
121.032814 234.0 
121.066849 784.0 
122.073929 2645.0 
122.988853 165.0 
123.045403 45914.0 
123.079872 3086.0 
123.429855 147.0 
123.756027 143.0 
124.049034 3009.0 
124.085495 235.0 
124.449181 139.0 
124.983757 125.0 
125.059601 688.0 
125.09626 168.0 
126.063988 180.0 
128.059998 397.0 
129.072052 511.0 
130.475128 278.0 
131.051468 817.0 
132.058487 1706.0 
133.064499 698.0 
134.050339 86.0 
135.044296 538.0 
135.081085 1655.0 
135.837891 194.0 
136.060898 177.0 
137.022705 189.0 
137.061295 3873.0 
137.097794 17255.0 
137.311401 206.0 
138.071747 337.0 
138.102966 909.0 
138.918045 144.0 
139.079086 299.0 
139.964142 177.0 
141.057648 118.0 
142.057129 153.0 
145.071533 385.0 
147.080643 6553.0 
147.961273 252.0 
148.087601 323.0 
148.320602 131.0 
149.061279 537.0 
149.125198 157.0 
150.021927 235.0 
150.068542 10623.0 
151.014709 237.0 
151.075592 1359.0 
153.092331 3302.0 
154.092697 121.0 
155.106964 371.0 
161.09314 260.0 
163.077438 65.0 
164.027267 165.0 
164.330124 252.0 
164.441895 84.0 
164.592529 81.0 
164.739044 196.0 
164.945587 172.0 
165.092651 99995.0 
165.150146 340.0 
165.384125 197.0 
165.430298 302.0 
165.587921 121.0 
165.796021 129.0 
165.859299 129.0 
165.891617 184.0 
165.917358 121.0 
166.067917 120.0 
166.096283 6913.0 
167.098557 147.0 
167.28009 100.0 
167.36113 84.0 
167.387405 68.0 
167.427765 235.0 
167.554993 90.0 
168.470215 117.0 
169.684128 91.0 
171.30928 93.0 
175.931366 95.0 
177.688324 98.0 
183.102615 2182.0 
184.098679 167.0 
188.412827 81.0 
206.655746 86.0 
207.103363 7639.0 
208.105576 427.0 
209.256638 97.0 
209.302719 87.0 
214.071198 134.0 
220.845566 83.0 
221.15387 345.0 
225.111053 712.0 
249.151306 160.0 
268.264893 298.0 
440.165222 135.0 
528.333252 118.0 
696.772278 186.0 
1312.298462 122.0 
1429.029053 202.0 
1533.896118 209.0 
1696.859375 273.0 
1716.173584 257.0 
1732.816162 297.0 
1754.062256 255.0 
1786.566162 291.0 
1933.109131 111.0 
1993.122192 293.0 
1998.561035 221.0 
END IONS

BEGIN IONS
TITLE=Scan Number: 268
PEPMASS=344.207
CHARGE=1+
MSLEVEL=2
FILENAME=C9_GC9_01_2804.mzXML
INSTRUMENT=ion trap
SCANS=268
SMILES=CC(C)CC(=O)OC1C(C(C)C)C(OC(C)=O)C=C(CO)C1=O
INCHIKEY=IVEJMWCGEFICJC-UHFFFAOYSA-N
71.048836 181.0 
75.37326 331.0 
75.435776 145.0 
77.038589 340.0 
79.022865 480.0 
79.057251 504.0 
81.035378 1297.0 
81.072723 1356.0 
82.049911 296.0 
83.047501 160.0 
85.065598 1983.0 
91.05513 4192.0 
92.058647 350.0 
93.035942 585.0 
93.070015 1641.0 
94.078239 208.0 
94.903305 176.0 
95.000122 141.0 
95.050331 17105.0 
95.08667 1483.0 
95.111717 82.0 
95.190079 109.0 
96.036331 269.0 
96.053329 748.0 
96.306862 137.0 
96.917145 268.0 
97.067924 521.0 
99.368309 150.0 
101.545631 225.0 
103.055717 651.0 
104.044319 90.0 
104.063919 1065.0 
105.011032 302.0 
105.044533 3919.0 
105.071342 729.0 
106.048836 167.0 
106.073769 769.0 
107.048416 1104.0 
107.086334 1429.0 
108.060081 181.0 
108.082619 325.0 
109.029198 751.0 
109.066948 1639.0 
109.102615 6623.0 
110.070122 323.0 
110.105972 685.0 
111.045029 4874.0 
112.050758 310.0 
115.054688 369.0 
116.061722 231.0 
116.389839 124.0 
117.070923 1388.0 
118.079865 209.0 
119.048981 439.0 
119.086693 11424.0 
119.146667 197.0 
120.053062 138.0 
120.089569 508.0 
121.038704 1033.0 
121.068367 895.0 
122.034645 200.0 
122.073746 1925.0 
122.942627 267.0 
123.045181 58931.0 
123.080177 2697.0 
123.162483 233.0 
123.197517 184.0 
123.261917 120.0 
123.336823 232.0 
123.361893 140.0 
124.024559 144.0 
124.048195 3968.0 
124.832962 118.0 
124.872772 117.0 
124.914528 112.0 
125.062859 682.0 
125.08696 174.0 
128.06604 434.0 
129.073441 729.0 
131.050476 649.0 
132.059372 1913.0 
133.067551 184.0 
135.044434 456.0 
135.083694 1673.0 
135.169952 220.0 
136.052551 385.0 
136.086304 371.0 
136.847183 142.0 
137.020096 101.0 
137.060608 2844.0 
137.097351 25429.0 
137.151627 189.0 
137.255112 140.0 
138.060928 239.0 
138.10083 832.0 
139.171906 225.0 
141.058456 365.0 
142.237579 311.0 
145.0522 195.0 
145.077576 189.0 
145.681976 198.0 
147.081268 8907.0 
148.056747 161.0 
148.084824 690.0 
149.059769 1269.0 
150.067764 9614.0 
151.075607 1733.0 
153.053497 937.0 
153.093155 4705.0 
154.097534 276.0 
154.842773 87.0 
155.106979 506.0 
161.099152 284.0 
162.622849 144.0 
163.088867 193.0 
164.560333 129.0 
164.588013 129.0 
164.787155 98.0 
164.829636 150.0 
165.092728 144139.0 
165.163116 202.0 
165.230652 168.0 
165.259354 207.0 
165.300949 232.0 
165.469543 82.0 
166.095383 7589.0 
166.176331 146.0 
167.048264 99.0 
167.129013 144.0 
167.222824 172.0 
167.737595 86.0 
168.294815 137.0 
171.085999 139.0 
177.446152 65.0 
179.113556 177.0 
183.103622 4452.0 
184.107239 548.0 
184.185089 155.0 
188.21698 96.0 
189.094421 351.0 
194.442993 262.0 
195.101074 139.0 
197.054153 200.0 
200.990356 124.0 
205.941833 119.0 
207.102997 15189.0 
208.103607 1301.0 
221.157578 167.0 
225.114975 5159.0 
225.376266 129.0 
226.117462 865.0 
237.144684 235.0 
239.167328 137.0 
243.053238 214.0 
248.995361 146.0 
249.155121 1721.0 
266.056519 143.0 
267.160004 821.0 
268.155487 297.0 
285.108154 82.0 
286.042542 225.0 
309.172974 203.0 
310.074249 105.0 
311.092407 223.0 
312.096008 375.0 
313.071869 205.0 
314.077087 151.0 
327.086456 139.0 
327.171051 107.0 
328.093079 163.0 
328.185883 171.0 
344.125183 174.0 
345.096161 124.0 
934.779236 192.0 
1341.896606 100.0 
1595.257812 298.0 
1638.004395 160.0 
1648.415527 141.0 
1651.513062 258.0 
1654.677612 155.0 
1680.532593 199.0 
1690.712769 193.0 
1691.016724 300.0 
1695.807129 133.0 
1773.787354 238.0 
1780.1698 256.0 
1851.463013 140.0 
1853.971191 211.0 
1906.803833 113.0 
1918.685181 133.0 
1940.976929 200.0 
1963.722778 368.0 
END IONS

BEGIN IONS
TITLE=Scan Number: 269
PEPMASS=329.138
CHARGE=1+
MSLEVEL=2
FILENAME=C9_GC9_01_2804.mzXML
INSTRUMENT=ion trap
SCANS=269
SMILES=C\C=C(\C)C(=O)OC(C)(C)C1CC2=C(O1)C=C3OC(=O)C=CC3=C2
INCHIKEY=HHNCJFKRMZDTHW-WZUFQYTHSA-N
70.029327 150.0 
70.533051 306.0 
71.275818 286.0 
72.581543 238.0 
74.446342 199.0 
76.334442 165.0 
77.037926 179.0 
79.055855 215.0 
80.062157 265.0 
80.550392 172.0 
81.073494 236.0 
81.968262 302.0 
82.594009 346.0 
82.971756 167.0 
83.05088 5675.0 
83.370743 154.0 
84.055641 393.0 
84.837036 117.0 
89.285294 85.0 
89.959229 339.0 
91.055611 2740.0 
92.061333 487.0 
93.070862 433.0 
95.016502 320.0 
95.048668 224.0 
97.098129 351.0 
100.805786 283.0 
103.054535 1308.0 
103.938705 103.0 
104.014191 230.0 
105.071251 2958.0 
105.390236 66.0 
105.608383 279.0 
105.969856 268.0 
106.062752 268.0 
107.04995 1081.0 
108.050217 164.0 
109.034309 285.0 
109.096291 283.0 
110.618355 261.0 
111.65184 210.0 
112.973053 277.0 
115.05513 3677.0 
116.062675 1827.0 
117.071793 2535.0 
117.771118 117.0 
117.811783 179.0 
118.075607 431.0 
118.938698 166.0 
119.050018 2478.0 
119.08889 128.0 
120.056183 230.0 
121.059143 360.0 
122.072006 275.0 
122.898643 129.0 
123.047188 179.0 
123.082077 185.0 
126.269257 194.0 
127.054649 199.0 
127.858086 242.0 
128.062592 2561.0 
128.456436 86.0 
129.037537 191.0 
129.071671 6121.0 
129.4767 222.0 
130.041656 461.0 
130.079025 3001.0 
130.196426 101.0 
131.050934 9675.0 
131.087845 2105.0 
131.445053 131.0 
132.055176 714.0 
132.091461 385.0 
132.893341 202.0 
133.028763 691.0 
133.06572 1311.0 
133.14624 127.0 
135.876785 238.0 
137.096634 268.0 
139.056183 123.0 
140.063568 351.0 
140.150146 267.0 
141.071564 4658.0 
141.993652 319.0 
142.078659 3722.0 
143.050995 621.0 
143.084641 1058.0 
144.024414 224.0 
144.058014 6696.0 
144.090805 597.0 
144.788101 91.0 
144.826294 284.0 
144.940613 116.0 
145.064468 3154.0 
145.102585 4782.0 
145.317963 128.0 
146.068115 993.0 
146.105133 887.0 
147.046188 5454.0 
147.463821 122.0 
148.053268 983.0 
148.616577 287.0 
149.05777 203.0 
151.108749 222.0 
152.063248 4106.0 
152.157608 238.0 
153.043365 241.0 
153.069733 3312.0 
153.167923 137.0 
153.248093 226.0 
153.333801 184.0 
153.613861 103.0 
153.922165 281.0 
154.077118 1222.0 
154.297333 166.0 
155.058929 2263.0 
155.086899 16073.0 
155.198547 194.0 
155.534332 214.0 
156.005875 372.0 
156.063751 428.0 
156.090927 1389.0 
157.067581 4759.0 
157.101944 880.0 
157.204987 169.0 
158.007141 130.0 
158.074951 13686.0 
158.472061 80.0 
159.047318 2298.0 
159.081253 3468.0 
160.053741 1253.0 
160.082108 211.0 
160.188385 112.0 
160.677414 87.0 
161.062363 1546.0 
161.37059 258.0 
163.039978 462.0 
164.063354 305.0 
165.022568 272.0 
165.073273 1905.0 
165.136795 242.0 
165.53569 124.0 
166.021225 132.0 
166.078201 1451.0 
167.046448 174.0 
167.063156 223.0 
167.087189 2339.0 
167.513977 245.0 
168.060135 5388.0 
168.092346 435.0 
169.067398 10195.0 
169.860901 373.0 
170.002121 134.0 
170.036011 237.0 
170.074203 4153.0 
170.128586 221.0 
170.481049 145.0 
170.988159 233.0 
171.044998 3507.0 
171.080826 2274.0 
171.773788 136.0 
172.050949 2523.0 
172.091904 177.0 
173.064545 2225.0 
173.09848 7686.0 
174.063995 138.0 
174.102905 365.0 
174.542999 231.0 
174.910904 173.0 
174.969223 192.0 
175.040161 14378.0 
175.074051 532.0 
175.25795 158.0 
176.049026 10946.0 
177.054916 1351.0 
179.063141 122.0 
181.06369 319.0 
182.069214 300.0 
183.048203 132.0 
183.082077 6620.0 
183.723969 104.0 
184.052658 642.0 
184.085159 1011.0 
184.555115 149.0 
184.72905 245.0 
184.995911 411.0 
185.061768 16655.0 
185.095978 2674.0 
185.13884 244.0 
185.269867 220.0 
185.545517 269.0 
186.068008 13101.0 
186.44104 157.0 
186.637436 129.0 
187.042358 940.0 
187.074585 1988.0 
188.045334 122.0 
189.042267 750.0 
189.059174 899.0 
189.669144 359.0 
190.056061 171.0 
191.716309 292.0 
192.423141 264.0 
193.067184 571.0 
196.054794 191.0 
197.060898 4237.0 
198.068604 1591.0 
199.040085 5632.0 
199.075821 848.0 
200.046417 6145.0 
200.086029 675.0 
201.059021 1970.0 
201.091553 5897.0 
202.065582 145.0 
202.097137 342.0 
203.037109 1353.0 
203.070129 305.0 
203.108673 94.0 
203.232407 158.0 
206.729492 304.0 
208.052902 139.0 
209.0737 238.0 
210.081604 309.0 
210.793564 319.0 
210.876648 69.0 
211.077942 15319.0 
211.123428 181.0 
211.147949 163.0 
211.68399 154.0 
212.082687 2223.0 
212.718216 139.0 
212.939026 249.0 
212.970917 277.0 
213.056656 74788.0 
213.45874 157.0 
213.533478 199.0 
213.745743 116.0 
213.964676 204.0 
214.064178 56360.0 
214.34053 200.0 
214.454254 173.0 
214.585175 118.0 
214.975632 103.0 
215.001984 202.0 
215.068909 6473.0 
215.622025 163.0 
215.674484 146.0 
215.840363 180.0 
216.701599 124.0 
217.082245 132.0 
219.102402 345.0 
221.661865 136.0 
223.568192 101.0 
224.210037 268.0 
226.851929 127.0 
227.03363 206.0 
227.073669 6006.0 
227.696335 79.0 
227.891937 157.0 
227.925201 165.0 
228.086548 491.0 
228.118271 165.0 
228.310593 99.0 
228.696503 218.0 
228.733704 179.0 
228.880005 229.0 
228.928711 568.0 
228.985291 325.0 
229.088226 289458.0 
229.140198 585.0 
229.185562 359.0 
229.256485 446.0 
229.457458 162.0 
229.567932 141.0 
229.79837 175.0 
229.875183 139.0 
230.092407 24058.0 
230.172745 119.0 
230.434692 86.0 
230.615707 121.0 
230.848221 73.0 
231.562424 99.0 
231.6418 108.0 
231.672882 190.0 
231.756729 81.0 
231.820663 126.0 
231.916092 157.0 
232.396759 88.0 
235.048828 275.0 
245.119965 155.0 
245.37767 95.0 
246.514938 113.0 
247.033295 204.0 
247.098572 37386.0 
247.156494 318.0 
247.640594 124.0 
248.101669 4293.0 
248.216202 228.0 
252.098175 122.0 
253.147064 90.0 
256.37207 152.0 
261.026825 136.0 
267.345703 173.0 
281.460602 271.0 
281.937439 263.0 
311.128265 183.0 
312.090485 178.0 
314.454102 241.0 
325.942383 87.0 
326.835724 76.0 
328.42276 179.0 
328.55835 155.0 
328.853149 158.0 
328.924561 308.0 
328.970459 148.0 
329.007904 375.0 
329.038727 260.0 
329.08371 721.0 
329.140778 67403.0 
329.664246 123.0 
329.929596 218.0 
330.081177 242.0 
330.144897 9057.0 
331.941864 104.0 
332.241638 163.0 
333.55191 167.0 
339.216217 132.0 
574.646362 116.0 
636.735352 79.0 
1339.895874 245.0 
1611.014771 306.0 
1654.345947 253.0 
1722.833618 159.0 
1724.029541 173.0 
1814.436279 288.0 
1826.658447 118.0 
END IONS

BEGIN IONS
TITLE=Scan Number: 270
PEPMASS=536.41498
CHARGE=1+
MSLEVEL=2
FILENAME=C9_GC9_01_2804.mzXML
INSTRUMENT=ion trap
SCANS=270
SMILES=CC(N)C(O)CCCCCCCCCCCCCCCCC(O)C(C)OC1OC(CO)C(O)C(O)C1O
INCHIKEY=FZSYYVOKNJZJTF-UHFFFAOYSA-N
69.939209 59.0 
70.03685 1358.0 
70.066833 4744.0 
70.087471 288.0 
70.118233 26.0 
70.217812 169.0 
70.348259 119.0 
70.46315 213.0 
70.501526 87.0 
70.551857 189.0 
70.587631 34.0 
70.648758 97.0 
70.69146 118.0 
70.733177 80.0 
70.769867 135.0 
71.012703 1859.0 
71.04998 7183.0 
71.086876 2437.0 
71.190132 180.0 
71.777405 94.0 
71.858536 171.0 
72.018059 170.0 
72.046509 1048.0 
72.079247 618.0 
72.379616 166.0 
72.413292 109.0 
72.924805 332.0 
72.952904 339.0 
73.029037 9688.0 
73.064598 382.0 
73.205566 77.0 
73.249626 61.0 
73.565605 219.0 
73.64016 74.0 
74.03241 843.0 
74.062653 288.0 
74.323708 243.0 
74.398445 112.0 
74.651817 125.0 
74.847504 166.0 
75.046623 646.0 
75.223541 84.0 
75.291954 44.0 
75.355507 232.0 
76.050156 56.0 
76.073959 222.0 
76.165642 263.0 
76.213173 299.0 
76.226234 237.0 
77.545036 208.0 
77.81041 281.0 
78.506973 244.0 
79.054596 3381.0 
79.237267 178.0 
79.283798 310.0 
79.464775 45.0 
79.919563 40.0 
80.051712 917.0 
80.389252 194.0 
80.412704 323.0 
80.668472 214.0 
80.861069 132.0 
80.962212 274.0 
81.034447 23021.0 
81.070747 40625.0 
81.127197 272.0 
81.183098 37.0 
81.20665 152.0 
81.277802 215.0 
81.649918 112.0 
81.690544 75.0 
81.787857 182.0 
82.036285 1353.0 
82.071808 3133.0 
82.305534 63.0 
82.370178 118.0 
82.637367 146.0 
82.710136 229.0 
83.012123 2592.0 
83.054237 720.0 
83.086403 32799.0 
83.18515 132.0 
83.258438 194.0 
83.428917 145.0 
83.516685 110.0 
83.92115 289.0 
84.010056 214.0 
84.044609 1184.0 
84.088799 2835.0 
84.247459 96.0 
84.521194 139.0 
84.598305 137.0 
84.757812 234.0 
84.82457 273.0 
84.855476 222.0 
84.929031 336.0 
84.980377 48.0 
85.029221 179010.0 
85.065483 2954.0 
85.089195 557.0 
85.102196 1615.0 
85.150024 422.0 
85.209862 323.0 
85.321823 124.0 
85.38118 92.0 
85.428802 144.0 
85.514732 390.0 
85.550941 59.0 
85.658867 62.0 
85.69371 228.0 
85.821938 104.0 
85.882416 183.0 
85.919746 109.0 
86.031822 5550.0 
86.060837 4218.0 
86.092926 285.0 
86.127205 188.0 
86.145111 51.0 
86.201828 83.0 
86.265198 137.0 
86.360863 118.0 
86.453278 46.0 
86.50573 270.0 
86.635986 50.0 
86.652092 151.0 
86.832367 142.0 
86.981445 281.0 
87.044647 20671.0 
87.068779 302.0 
87.147812 25.0 
87.316322 112.0 
87.342636 25.0 
87.395279 95.0 
87.498703 56.0 
87.528389 181.0 
87.861427 114.0 
87.87883 100.0 
87.898216 268.0 
88.049118 808.0 
88.081795 265.0 
88.229614 92.0 
88.25544 146.0 
88.582535 23.0 
88.596664 164.0 
88.632385 22.0 
88.944756 54.0 
89.023636 205.0 
89.421989 174.0 
89.462883 61.0 
89.629807 247.0 
89.981781 133.0 
90.025002 146.0 
90.057556 380.0 
90.511887 71.0 
90.538361 245.0 
90.930054 57.0 
91.039871 8153.0 
91.239914 49.0 
91.514397 68.0 
91.842674 50.0 
92.325653 150.0 
92.347511 157.0 
92.675201 188.0 
92.769005 200.0 
93.069962 6427.0 
93.200859 126.0 
93.42392 169.0 
93.677971 30.0 
93.973175 205.0 
94.034309 106.0 
94.075134 508.0 
94.099998 228.0 
94.161278 96.0 
94.288155 176.0 
94.523415 78.0 
94.603081 173.0 
94.786598 24.0 
94.915024 198.0 
95.015709 164.0 
95.054161 1043.0 
95.086525 57716.0 
95.140816 115.0 
95.168442 53.0 
95.199257 81.0 
95.241531 157.0 
95.347198 118.0 
95.573944 243.0 
96.044952 1448.0 
96.090302 5266.0 
96.228989 142.0 
96.431061 19.0 
96.488922 249.0 
96.630707 130.0 
96.737831 627.0 
96.830849 59.0 
96.864639 286.0 
97.029045 74250.0 
97.064972 726.0 
97.102272 30238.0 
97.340309 167.0 
97.428238 151.0 
97.551582 405.0 
97.716713 34.0 
97.734024 42.0 
97.802605 107.0 
97.938324 232.0 
98.031479 5051.0 
98.061409 946.0 
98.099396 2505.0 
98.164337 171.0 
98.212067 143.0 
98.224243 180.0 
98.779747 93.0 
98.852242 257.0 
98.944382 62.0 
99.006287 301.0 
99.044998 19960.0 
99.081566 1072.0 
99.106232 123.0 
99.121094 370.0 
99.503189 61.0 
100.04789 903.0 
100.080193 472.0 
100.163116 188.0 
100.762428 236.0 
101.024353 7867.0 
101.059784 47.0 
101.117317 97.0 
101.197227 31.0 
101.272354 71.0 
101.326088 261.0 
101.595352 343.0 
101.831253 43.0 
101.871506 109.0 
101.903389 21.0 
101.961594 117.0 
102.028091 487.0 
102.056946 187.0 
102.085495 77.0 
102.428299 253.0 
102.561226 60.0 
102.700195 62.0 
102.960228 53.0 
103.013588 128.0 
103.040657 7670.0 
103.315666 108.0 
103.565445 354.0 
103.949104 130.0 
104.04113 497.0 
104.67646 18.0 
105.04525 588.0 
105.401283 166.0 
105.528702 41.0 
105.648514 244.0 
105.734924 299.0 
105.956924 195.0 
105.983665 138.0 
106.049202 122.0 
106.067352 146.0 
106.234505 342.0 
106.425766 169.0 
106.965561 243.0 
106.98587 232.0 
107.048615 175.0 
107.08622 5144.0 
107.491959 152.0 
107.74369 242.0 
108.04686 272.0 
108.088165 776.0 
108.144272 92.0 
108.197128 59.0 
108.256348 104.0 
108.286514 212.0 
108.305908 77.0 
108.38372 43.0 
108.425385 71.0 
108.517632 274.0 
108.972504 375.0 
108.995728 148.0 
109.029106 38371.0 
109.064705 430.0 
109.102013 46041.0 
109.223 137.0 
109.26757 400.0 
109.330063 29.0 
109.893578 94.0 
110.032219 2549.0 
110.06028 918.0 
110.10511 4011.0 
110.45182 77.0 
110.572197 98.0 
110.604042 81.0 
110.957817 143.0 
111.047356 591.0 
111.0821 1481.0 
111.118095 10928.0 
111.365257 97.0 
111.383148 185.0 
112.048286 156.0 
112.077751 805.0 
112.120811 1209.0 
112.176605 222.0 
112.241058 25.0 
112.855812 137.0 
112.893219 128.0 
113.024727 273.0 
113.094559 1253.0 
113.246117 292.0 
113.814995 263.0 
114.025589 159.0 
114.055801 946.0 
114.096367 633.0 
114.442108 384.0 
114.481201 141.0 
114.766098 197.0 
114.854797 198.0 
115.039818 14778.0 
115.077965 131.0 
115.411583 323.0 
115.624481 89.0 
115.99939 109.0 
116.043381 198.0 
116.463196 192.0 
117.052689 815.0 
117.36898 88.0 
117.835602 198.0 
118.084023 187.0 
118.772301 156.0 
119.063622 359.0 
119.084198 163.0 
119.435043 256.0 
119.711166 28.0 
119.730545 363.0 
120.000137 266.0 
120.501282 137.0 
120.596497 193.0 
120.656479 240.0 
120.994438 173.0 
121.076378 687.0 
121.102074 7455.0 
121.246414 260.0 
121.81012 71.0 
121.888336 82.0 
122.104973 820.0 
122.441551 251.0 
122.838837 103.0 
123.049728 154.0 
123.117302 20173.0 
123.852562 36.0 
124.076416 659.0 
124.120888 1515.0 
124.33802 281.0 
125.05867 183.0 
125.096428 435.0 
125.13324 3545.0 
125.679291 227.0 
126.011909 58.0 
126.055168 1279.0 
126.103233 305.0 
126.132065 507.0 
126.29731 174.0 
126.443657 203.0 
126.543182 65.0 
126.732452 246.0 
126.835266 89.0 
127.03978 69410.0 
127.110435 559.0 
127.14801 66.0 
127.203003 87.0 
127.260765 66.0 
127.321693 247.0 
127.483421 177.0 
127.641998 42.0 
127.9785 34.0 
128.044861 3502.0 
128.069839 781.0 
128.107468 126.0 
128.254166 250.0 
128.7211 41.0 
129.04007 118.0 
129.088959 49.0 
129.128113 310.0 
129.42157 347.0 
129.480865 165.0 
129.508606 143.0 
129.603851 327.0 
129.810226 104.0 
130.149078 106.0 
131.370087 186.0 
131.732986 135.0 
132.251343 42.0 
133.010742 192.0 
133.617081 199.0 
133.827896 252.0 
134.294556 334.0 
135.070892 89.0 
135.117844 7979.0 
135.147049 318.0 
135.531647 276.0 
136.009872 232.0 
136.076065 179.0 
136.120926 733.0 
136.728241 114.0 
137.062164 185.0 
137.133453 8988.0 
137.915375 89.0 
138.076843 177.0 
138.135513 502.0 
138.280807 202.0 
138.78302 44.0 
139.113174 623.0 
139.13475 172.0 
139.229233 116.0 
139.859528 66.0 
140.144119 382.0 
140.375214 114.0 
140.94281 208.0 
140.986816 21.0 
141.131729 748.0 
141.160736 225.0 
141.808868 134.0 
142.083191 93.0 
142.152954 193.0 
142.504913 324.0 
142.626114 182.0 
142.903534 283.0 
143.033218 115.0 
143.140503 197.0 
143.704834 257.0 
144.067444 5564.0 
144.392944 173.0 
144.422714 271.0 
144.472473 107.0 
144.91835 124.0 
144.996094 161.0 
145.05014 30069.0 
145.102737 324.0 
145.140076 22.0 
145.164215 142.0 
145.313751 252.0 
145.334076 230.0 
145.358871 261.0 
145.382217 226.0 
145.539017 202.0 
145.853714 56.0 
145.952545 486.0 
146.052124 831.0 
146.074814 72.0 
146.847412 56.0 
147.160843 160.0 
147.270432 376.0 
148.120209 211.0 
148.642914 230.0 
148.667831 83.0 
148.903992 305.0 
149.109421 160.0 
149.133667 8462.0 
149.572784 21.0 
149.889679 148.0 
150.13739 405.0 
150.194534 22.0 
151.1241 1067.0 
151.149689 3322.0 
151.191727 76.0 
151.31575 134.0 
151.515762 162.0 
152.077621 618.0 
152.108337 129.0 
152.154266 621.0 
152.466248 57.0 
153.13092 377.0 
153.161682 164.0 
153.789383 356.0 
154.085159 1262.0 
154.119568 125.0 
154.160858 265.0 
155.142914 952.0 
155.18013 125.0 
155.315369 210.0 
155.334198 167.0 
156.064636 352.0 
156.097397 242.0 
156.362366 130.0 
156.58461 159.0 
156.997528 180.0 
157.105026 147.0 
157.149704 320.0 
157.234772 109.0 
157.443115 202.0 
157.485626 239.0 
158.491058 29.0 
158.769943 68.0 
158.919968 70.0 
159.064392 134.0 
159.509842 22.0 
159.550232 259.0 
160.092361 243.0 
160.339462 361.0 
161.089081 232.0 
161.198196 143.0 
161.270493 116.0 
161.671249 30.0 
161.746445 297.0 
161.803787 194.0 
162.020279 200.0 
162.077484 6616.0 
162.221146 144.0 
162.445114 298.0 
162.733887 117.0 
163.0634 1143.0 
163.15007 4066.0 
163.345871 144.0 
163.853867 167.0 
164.089706 530.0 
164.117767 215.0 
164.151688 739.0 
164.310242 113.0 
164.535126 223.0 
165.004227 327.0 
165.165039 2022.0 
165.241669 235.0 
165.511444 320.0 
165.598114 87.0 
165.626328 141.0 
166.095551 112.0 
166.167282 341.0 
166.344559 122.0 
166.917725 247.0 
167.143494 287.0 
167.670883 304.0 
168.115967 142.0 
168.175461 799.0 
168.251846 313.0 
168.349045 48.0 
168.381927 52.0 
168.469467 43.0 
169.16188 653.0 
169.354492 347.0 
169.774597 131.0 
169.933136 246.0 
170.083771 1123.0 
170.185928 403.0 
170.363129 200.0 
170.398743 152.0 
170.871704 136.0 
171.166336 71.0 
171.464096 289.0 
172.059326 142.0 
172.097595 4178.0 
172.374176 100.0 
173.099533 805.0 
173.165436 312.0 
173.333099 173.0 
173.922913 299.0 
174.07402 233.0 
174.187119 340.0 
174.53421 469.0 
174.628479 325.0 
174.851074 71.0 
175.459335 303.0 
176.507095 226.0 
177.165543 2630.0 
177.259445 210.0 
177.836227 246.0 
178.166168 109.0 
178.618225 21.0 
178.700531 203.0 
179.155426 390.0 
179.181503 1093.0 
180.090393 263.0 
180.178726 463.0 
180.383072 213.0 
180.521439 216.0 
180.949448 241.0 
181.202026 208.0 
181.876404 131.0 
181.944885 29.0 
182.075302 258.0 
182.154175 129.0 
182.194244 274.0 
182.260056 208.0 
182.296768 189.0 
182.94455 137.0 
182.968796 275.0 
183.080704 176.0 
183.182663 553.0 
183.309555 21.0 
183.539154 378.0 
183.550858 330.0 
184.026382 91.0 
184.80246 263.0 
184.873199 239.0 
185.153549 96.0 
185.378098 254.0 
185.705597 150.0 
185.996353 193.0 
186.038345 29.0 
186.276703 114.0 
187.227219 118.0 
187.487366 108.0 
188.090851 3144.0 
188.440994 161.0 
188.50676 155.0 
189.099075 122.0 
189.147812 116.0 
189.280273 175.0 
189.727066 185.0 
190.028931 22.0 
190.101044 611.0 
190.498123 361.0 
190.61319 85.0 
190.639435 47.0 
191.180588 1519.0 
191.363724 257.0 
191.561691 185.0 
191.710678 213.0 
191.745056 41.0 
192.167099 145.0 
192.66452 220.0 
192.83139 97.0 
192.897186 103.0 
193.194565 1714.0 
193.378159 158.0 
193.860596 123.0 
194.136276 203.0 
194.189865 330.0 
194.428787 160.0 
194.509125 150.0 
194.67836 181.0 
194.83754 240.0 
194.94751 177.0 
194.985641 32.0 
195.193985 344.0 
195.283371 193.0 
196.17305 127.0 
196.204224 1333.0 
196.395935 287.0 
197.190231 577.0 
198.04483 167.0 
198.198349 253.0 
198.703247 148.0 
199.261063 144.0 
199.346146 70.0 
199.459747 21.0 
199.537262 257.0 
200.115021 361.0 
200.334091 80.0 
200.366104 194.0 
201.741867 308.0 
201.839722 83.0 
202.109207 158.0 
202.158417 61.0 
202.775299 163.0 
202.855438 324.0 
203.030701 136.0 
203.414368 216.0 
203.694138 50.0 
205.195755 854.0 
205.265945 55.0 
205.333374 223.0 
205.564911 242.0 
205.749741 233.0 
205.777512 104.0 
206.102844 494.0 
206.200439 125.0 
206.507324 241.0 
207.10495 194.0 
207.211243 1852.0 
207.966827 167.0 
208.115158 181.0 
208.211365 946.0 
208.363724 381.0 
209.000549 223.0 
209.072693 266.0 
209.197495 308.0 
209.33139 280.0 
209.946411 386.0 
210.1922 243.0 
210.222382 1589.0 
210.350128 364.0 
210.399017 71.0 
210.475159 212.0 
211.184982 264.0 
211.205521 710.0 
211.678894 99.0 
211.767365 31.0 
212.439041 28.0 
212.763138 104.0 
212.807922 21.0 
213.399338 21.0 
213.553268 200.0 
214.222626 175.0 
214.709961 150.0 
215.000046 238.0 
215.035629 202.0 
215.298279 141.0 
215.837402 212.0 
216.197571 118.0 
216.338226 169.0 
216.465103 173.0 
217.263229 127.0 
217.388367 253.0 
217.582443 110.0 
217.686539 257.0 
218.094299 258.0 
218.169037 158.0 
218.603699 146.0 
218.738297 183.0 
218.795227 21.0 
219.172913 508.0 
219.211487 1817.0 
219.499496 277.0 
219.602631 269.0 
220.127869 210.0 
220.455063 329.0 
220.501312 384.0 
220.906647 268.0 
221.228073 1669.0 
221.434341 159.0 
221.470718 200.0 
221.688477 229.0 
222.226532 790.0 
222.631622 420.0 
222.766037 181.0 
222.815659 191.0 
223.172409 198.0 
223.220169 338.0 
224.207077 374.0 
224.239029 3041.0 
224.510178 147.0 
224.547028 243.0 
224.848221 312.0 
224.943863 153.0 
224.96524 181.0 
225.222824 888.0 
225.361618 38.0 
226.215729 128.0 
226.64386 132.0 
226.685593 161.0 
226.764633 171.0 
226.883896 222.0 
227.233734 337.0 
227.276031 21.0 
227.299988 312.0 
227.402145 233.0 
227.426437 116.0 
227.63446 181.0 
227.95195 343.0 
228.012726 141.0 
228.152374 74.0 
228.376266 249.0 
228.784805 265.0 
229.381821 49.0 
229.467087 101.0 
230.132568 204.0 
230.576111 215.0 
230.68985 261.0 
231.147919 164.0 
231.293427 64.0 
232.122787 271.0 
232.277359 223.0 
232.561905 182.0 
232.764343 355.0 
232.795654 188.0 
232.857208 321.0 
233.22438 1064.0 
233.288834 162.0 
233.361588 77.0 
233.442795 204.0 
234.004562 101.0 
234.235153 129.0 
234.793045 226.0 
234.825653 325.0 
235.191116 366.0 
235.237259 374.0 
235.602341 73.0 
235.664856 242.0 
235.798401 169.0 
236.236679 1400.0 
236.342575 44.0 
237.227402 466.0 
237.48645 66.0 
237.542206 162.0 
237.679626 273.0 
238.218872 82.0 
238.252502 3365.0 
238.559555 115.0 
238.61499 21.0 
238.891418 414.0 
238.971298 78.0 
239.220428 247.0 
239.261871 564.0 
239.29187 148.0 
239.323578 140.0 
239.377792 162.0 
239.54866 133.0 
239.749695 260.0 
240.201309 504.0 
240.264008 136.0 
240.906586 279.0 
241.495712 254.0 
241.614243 220.0 
241.75087 49.0 
243.283737 179.0 
243.436523 226.0 
243.740616 40.0 
243.769882 209.0 
243.980621 327.0 
244.049866 162.0 
244.202042 139.0 
244.502808 142.0 
244.538422 188.0 
245.766388 187.0 
246.384323 75.0 
246.485458 114.0 
246.641037 218.0 
246.739227 147.0 
246.768219 219.0 
247.208908 126.0 
247.245041 2605.0 
247.635925 306.0 
247.726501 22.0 
248.074768 208.0 
248.200455 152.0 
248.246368 394.0 
248.615448 115.0 
248.955292 259.0 
249.256653 598.0 
249.873993 259.0 
250.005554 262.0 
250.251801 3269.0 
250.316055 239.0 
250.654144 218.0 
250.724289 192.0 
251.087753 31.0 
251.258911 906.0 
251.748138 200.0 
252.236237 504.0 
252.268921 1806.0 
253.257965 1153.0 
253.355164 214.0 
253.40802 29.0 
253.764893 30.0 
254.34938 154.0 
254.965744 237.0 
255.571487 195.0 
256.016724 180.0 
256.125336 227.0 
256.424194 36.0 
256.922119 290.0 
258.037903 160.0 
258.100708 278.0 
258.225555 140.0 
259.875397 35.0 
260.133545 171.0 
260.283356 216.0 
260.350555 74.0 
260.975006 174.0 
261.257874 676.0 
261.681274 257.0 
261.766632 250.0 
262.020966 265.0 
262.169037 275.0 
262.259491 777.0 
264.218414 240.0 
264.268829 6717.0 
264.381927 47.0 
264.656982 54.0 
265.251953 1667.0 
265.270355 1706.0 
266.283112 1662.0 
266.544525 118.0 
266.668243 418.0 
266.845581 42.0 
267.265656 414.0 
267.297302 364.0 
267.593079 233.0 
267.664368 188.0 
268.263245 155.0 
269.263092 280.0 
269.579193 243.0 
270.082306 174.0 
270.281281 231.0 
270.391541 180.0 
271.295319 119.0 
271.503021 124.0 
271.78009 128.0 
272.348083 221.0 
272.750153 298.0 
272.869873 200.0 
272.918304 352.0 
273.15155 207.0 
273.674347 151.0 
273.961365 234.0 
274.23407 217.0 
274.549561 237.0 
274.696198 213.0 
274.723816 193.0 
275.055878 347.0 
275.270721 131.0 
275.422272 176.0 
275.602631 189.0 
275.892181 334.0 
276.573059 161.0 
276.859406 191.0 
277.287079 144.0 
277.661041 157.0 
277.934601 166.0 
278.285248 9832.0 
278.324982 173.0 
278.684357 182.0 
278.735382 85.0 
279.100403 163.0 
279.167114 21.0 
279.291199 1549.0 
279.340881 77.0 
279.684296 164.0 
279.77652 205.0 
279.868683 158.0 
279.959167 34.0 
280.101624 137.0 
280.267456 683.0 
280.300995 2743.0 
280.347961 59.0 
280.558167 134.0 
280.62088 106.0 
281.149719 116.0 
281.30896 408.0 
281.599152 434.0 
281.970612 139.0 
282.280853 3566.0 
282.905548 75.0 
282.976654 497.0 
283.123901 239.0 
283.284149 194.0 
283.663483 298.0 
283.815186 190.0 
284.662415 188.0 
284.879852 264.0 
285.346832 211.0 
286.062897 59.0 
286.230194 249.0 
286.456177 226.0 
286.575378 265.0 
286.840149 140.0 
287.094116 215.0 
287.302673 149.0 
287.749542 244.0 
287.805573 291.0 
288.264557 128.0 
288.672638 101.0 
288.819489 176.0 
288.856598 167.0 
289.624969 155.0 
289.665161 209.0 
290.164307 174.0 
290.584564 192.0 
290.729065 253.0 
291.041809 130.0 
291.534607 137.0 
291.752441 217.0 
291.948853 208.0 
292.29718 805.0 
292.340546 333.0 
292.665833 332.0 
292.886871 79.0 
293.106842 124.0 
293.235992 162.0 
293.305756 238.0 
293.826874 83.0 
293.893616 196.0 
294.194489 129.0 
294.233246 217.0 
294.316772 57488.0 
294.403351 82.0 
294.495026 119.0 
294.75293 147.0 
294.89093 134.0 
295.022064 78.0 
295.232788 473.0 
295.31955 10913.0 
295.402649 233.0 
295.707153 155.0 
295.740112 69.0 
295.832611 332.0 
296.156982 100.0 
296.295685 9369.0 
296.80603 24.0 
296.966522 81.0 
297.022064 170.0 
297.191956 192.0 
297.30365 1234.0 
297.592957 22.0 
297.621704 32.0 
297.794189 254.0 
297.933655 145.0 
298.296509 165.0 
299.307709 233.0 
299.648804 199.0 
299.904266 238.0 
300.027435 162.0 
300.218445 73.0 
300.250916 100.0 
302.283722 119.0 
302.611084 23.0 
302.770233 224.0 
303.006927 146.0 
303.110687 283.0 
303.18515 331.0 
303.306061 8183.0 
303.473572 46.0 
303.526215 243.0 
304.310242 1195.0 
304.425751 29.0 
304.460114 302.0 
304.97821 275.0 
305.065308 101.0 
305.253265 176.0 
305.508881 38.0 
305.682465 495.0 
305.785919 195.0 
305.918274 38.0 
305.943268 62.0 
306.269958 275.0 
306.308258 317.0 
306.653931 166.0 
307.31488 235.0 
307.470184 112.0 
307.970734 162.0 
308.334137 1475.0 
308.428406 78.0 
308.506104 141.0 
308.806732 211.0 
309.296387 259.0 
309.337799 558.0 
309.482635 164.0 
309.594116 21.0 
309.973206 40.0 
310.310516 859.0 
310.354187 820.0 
310.56076 108.0 
310.815979 228.0 
310.852081 50.0 
311.14975 184.0 
311.298615 169.0 
312.003021 40.0 
312.324768 560.0 
312.454651 143.0 
312.616302 190.0 
312.656342 216.0 
313.34256 113.0 
313.892883 141.0 
314.053772 153.0 
314.305878 845.0 
315.261444 129.0 
315.314728 301.0 
315.537231 71.0 
315.660461 70.0 
316.248535 183.0 
316.651062 108.0 
317.171448 77.0 
317.338135 142.0 
317.406128 271.0 
317.590271 127.0 
317.715485 149.0 
318.101868 131.0 
318.163086 161.0 
318.312927 775.0 
318.486267 128.0 
318.519531 182.0 
318.786682 122.0 
318.881104 179.0 
318.91629 441.0 
318.989044 263.0 
319.037598 124.0 
319.085175 125.0 
319.133789 129.0 
319.270447 116.0 
319.321198 283.0 
319.365356 327.0 
319.400604 96.0 
319.467682 183.0 
319.565796 269.0 
319.654724 23.0 
319.803925 30.0 
319.917664 176.0 
319.983398 123.0 
320.105621 209.0 
320.14798 491.0 
320.189148 175.0 
320.222839 1152.0 
320.332275 223650.0 
320.397003 413.0 
320.46286 208.0 
320.513 91.0 
320.56897 632.0 
320.631683 95.0 
320.674164 85.0 
320.718628 42.0 
320.807312 262.0 
320.873657 86.0 
320.919525 88.0 
320.947327 67.0 
320.979309 329.0 
321.026703 150.0 
321.050232 145.0 
321.092957 378.0 
321.127716 94.0 
321.2323 161.0 
321.335175 48109.0 
321.460846 116.0 
321.519409 79.0 
321.567596 139.0 
321.674194 124.0 
321.704834 113.0 
321.745178 154.0 
321.792816 51.0 
321.847015 209.0 
321.923828 137.0 
322.014893 230.0 
322.222504 98.0 
322.259247 199.0 
322.339874 4677.0 
322.552765 27.0 
322.640747 231.0 
322.763336 64.0 
322.852875 78.0 
322.910126 159.0 
323.084167 184.0 
323.162598 36.0 
323.253204 128.0 
323.282257 108.0 
323.337036 837.0 
323.37793 177.0 
323.472351 24.0 
323.538422 115.0 
323.576141 103.0 
323.61441 130.0 
323.732666 97.0 
323.765198 104.0 
323.875793 114.0 
324.164978 80.0 
324.217865 39.0 
324.327789 153.0 
324.489502 42.0 
324.568909 129.0 
324.706146 291.0 
324.787811 141.0 
326.206451 110.0 
326.254028 302.0 
326.683105 30.0 
327.189362 188.0 
327.308716 152.0 
327.541107 143.0 
327.710022 216.0 
327.83728 133.0 
328.485229 45.0 
328.518463 214.0 
329.349213 89.0 
329.429291 234.0 
329.590759 143.0 
329.830048 214.0 
329.880737 85.0 
330.932617 102.0 
331.430908 44.0 
331.870026 204.0 
331.951385 21.0 
332.118225 369.0 
332.33139 298.0 
332.465424 295.0 
332.612335 104.0 
332.641113 124.0 
332.667236 232.0 
332.831116 372.0 
333.347107 278.0 
333.818604 272.0 
334.122253 167.0 
334.183472 165.0 
334.355469 302.0 
334.586365 34.0 
334.622375 133.0 
334.651703 137.0 
334.935303 214.0 
335.064667 202.0 
335.327209 155.0 
335.622894 176.0 
335.739288 183.0 
335.846832 117.0 
335.879669 217.0 
335.920441 375.0 
335.969788 432.0 
336.051941 84.0 
336.083649 207.0 
336.12262 169.0 
336.154907 165.0 
336.186218 80.0 
336.238312 253.0 
336.279724 171.0 
336.328064 5632.0 
336.384583 345.0 
336.439606 28.0 
336.476288 204.0 
336.517578 54.0 
336.552551 426.0 
336.636902 582.0 
336.70578 103.0 
336.763336 422.0 
336.821808 168.0 
336.8974 32.0 
336.934448 330.0 
337.035767 148.0 
337.089752 449.0 
337.139557 350.0 
337.17041 422.0 
337.203766 196.0 
337.240967 417.0 
337.262115 427.0 
337.333832 1839.0 
337.382446 177.0 
337.424957 467.0 
337.490387 101.0 
337.517792 95.0 
337.556274 538.0 
337.597778 163.0 
337.629822 188.0 
337.66037 330.0 
337.683289 274.0 
337.758392 360.0 
337.80014 534.0 
337.857117 1066.0 
337.904236 233.0 
337.98465 445.0 
338.016724 304.0 
338.053772 612.0 
338.131165 1233.0 
338.227905 3052.0 
338.342926 920223.0 
338.446838 254.0 
338.490265 474.0 
338.579285 651.0 
338.625702 298.0 
338.677521 601.0 
338.710419 160.0 
338.742096 443.0 
338.826263 789.0 
338.871674 1065.0 
338.92157 97.0 
338.997192 531.0 
339.050385 668.0 
339.08139 491.0 
339.13623 374.0 
339.202057 918.0 
339.345856 196755.0 
339.413696 40.0 
339.473206 412.0 
339.57193 283.0 
339.589203 280.0 
339.639099 326.0 
339.664093 440.0 
339.722992 340.0 
339.762421 224.0 
339.795227 279.0 
339.860291 237.0 
339.884338 320.0 
339.926819 99.0 
339.955994 66.0 
340.015228 210.0 
340.053558 150.0 
340.083801 221.0 
340.115204 81.0 
340.148499 422.0 
340.220886 253.0 
340.248535 120.0 
340.346985 12861.0 
340.430542 78.0 
340.546448 134.0 
340.571472 89.0 
340.656189 274.0 
340.693542 121.0 
340.736847 19.0 
340.789825 111.0 
340.920837 215.0 
341.04483 225.0 
341.1073 123.0 
341.157013 299.0 
341.195251 316.0 
341.242157 150.0 
341.296295 93.0 
341.337128 258.0 
341.412018 252.0 
341.433289 336.0 
341.472046 446.0 
341.525208 740.0 
341.559052 174.0 
341.609619 273.0 
341.66095 856.0 
341.763611 538.0 
341.802429 113.0 
341.837067 233.0 
341.852539 220.0 
341.892517 308.0 
342.048615 185.0 
342.098114 171.0 
342.127594 157.0 
342.214935 70.0 
342.282806 121.0 
342.329865 148.0 
342.359894 234.0 
342.472412 100.0 
342.548737 145.0 
342.612549 175.0 
342.657471 143.0 
342.770691 125.0 
342.79892 154.0 
342.822266 207.0 
342.965729 61.0 
343.154602 43.0 
343.494629 250.0 
343.666077 194.0 
343.733337 199.0 
343.950592 83.0 
344.009155 69.0 
344.189484 271.0 
344.263031 111.0 
344.328705 1278.0 
344.716309 36.0 
345.349121 25.0 
346.311554 81.0 
346.335968 100.0 
348.291473 156.0 
348.328674 340.0 
349.115723 84.0 
349.785217 159.0 
350.288574 146.0 
350.343201 2169.0 
350.615051 129.0 
350.767548 65.0 
350.808411 59.0 
351.069122 41.0 
351.114532 287.0 
351.347961 194.0 
351.384766 85.0 
351.53241 36.0 
351.652222 149.0 
351.84726 89.0 
352.234436 160.0 
352.360107 600.0 
352.457092 146.0 
352.667542 239.0 
352.776398 64.0 
352.89325 142.0 
352.960083 206.0 
352.980103 232.0 
353.053741 165.0 
353.085205 71.0 
353.136963 109.0 
353.360474 460.0 
353.545624 75.0 
353.703766 30.0 
354.052002 260.0 
354.143585 94.0 
354.20636 109.0 
354.242981 25.0 
354.297974 165.0 
354.341827 945.0 
354.422424 491.0 
354.507385 263.0 
354.602325 150.0 
354.627411 136.0 
354.716064 169.0 
354.839233 190.0 
354.919495 73.0 
355.021393 379.0 
355.077576 187.0 
355.128418 183.0 
355.176849 165.0 
355.245392 293.0 
355.302002 101.0 
355.350067 711.0 
355.396698 156.0 
355.424469 248.0 
355.453003 352.0 
355.499695 906.0 
355.58429 219.0 
355.688019 89.0 
355.714386 102.0 
355.746979 94.0 
355.774139 91.0 
355.823212 46.0 
355.850769 267.0 
355.91629 454.0 
355.972351 133.0 
356.011292 161.0 
356.043121 260.0 
356.101257 429.0 
356.182373 260.0 
356.245483 1673.0 
356.353638 535283.0 
356.448029 146.0 
356.506897 332.0 
356.566711 272.0 
356.606812 574.0 
356.646027 446.0 
356.693573 357.0 
356.721497 398.0 
356.773346 208.0 
356.809326 243.0 
356.823364 216.0 
356.862366 295.0 
356.910187 173.0 
356.973236 310.0 
357.020447 525.0 
357.050598 338.0 
357.114532 288.0 
357.176208 406.0 
357.230042 88.0 
357.356903 100678.0 
357.482513 173.0 
357.513641 126.0 
357.582947 160.0 
357.657227 171.0 
357.736023 222.0 
357.785217 257.0 
357.810852 279.0 
357.854492 269.0 
357.987793 71.0 
358.020905 130.0 
358.085388 40.0 
358.111206 73.0 
358.181671 27.0 
358.207184 48.0 
358.231476 100.0 
358.264343 46.0 
358.359436 5412.0 
358.470184 246.0 
358.492737 267.0 
358.56073 213.0 
358.624939 59.0 
358.711029 77.0 
358.822845 90.0 
358.98233 274.0 
359.174866 184.0 
359.314819 149.0 
359.37674 87.0 
359.403473 118.0 
359.450134 282.0 
359.483582 180.0 
359.528107 72.0 
359.579987 324.0 
359.610168 122.0 
359.666016 311.0 
359.749207 213.0 
359.796906 308.0 
359.828003 111.0 
359.896759 130.0 
359.932281 285.0 
359.965057 316.0 
359.98468 274.0 
360.03714 113.0 
360.150604 48.0 
360.194336 121.0 
360.279388 185.0 
360.318359 443.0 
360.349457 532.0 
360.719788 57.0 
360.756073 270.0 
360.795349 32.0 
360.936676 184.0 
361.045502 94.0 
361.212616 48.0 
361.330261 507.0 
361.636841 84.0 
361.695129 39.0 
361.744934 83.0 
362.124878 165.0 
362.253082 83.0 
362.286377 240.0 
362.343048 7867.0 
362.630402 40.0 
362.778687 64.0 
362.856842 105.0 
362.893311 547.0 
363.233917 78.0 
363.298889 158.0 
363.344391 1465.0 
363.402405 61.0 
363.647247 119.0 
364.02829 122.0 
364.358429 378.0 
365.217316 160.0 
365.318329 193.0 
365.574982 103.0 
365.928955 236.0 
366.250641 31.0 
366.339417 394.0 
366.374023 178.0 
366.548645 53.0 
366.821564 230.0 
367.040009 261.0 
367.291809 99.0 
367.401764 244.0 
367.57489 313.0 
367.653198 255.0 
368.018005 111.0 
368.197021 183.0 
368.294067 176.0 
368.354736 1051.0 
368.448486 66.0 
368.899506 149.0 
369.090576 153.0 
369.126312 52.0 
369.364746 198.0 
369.673126 66.0 
369.823639 127.0 
370.099304 104.0 
370.297211 184.0 
370.368195 210.0 
370.614288 234.0 
370.79126 59.0 
370.868927 324.0 
370.906586 232.0 
371.113556 283.0 
371.169037 348.0 
371.223907 242.0 
371.262268 150.0 
371.348328 243.0 
371.392242 115.0 
371.449738 118.0 
371.520569 55.0 
371.588196 321.0 
371.670837 196.0 
371.721313 149.0 
371.787018 136.0 
371.828094 96.0 
371.878937 214.0 
371.914429 139.0 
371.944427 211.0 
372.043549 520.0 
372.093628 118.0 
372.14032 79.0 
372.337433 1275.0 
372.390045 165.0 
372.459106 223.0 
372.547943 167.0 
372.617981 258.0 
372.700653 150.0 
372.729309 185.0 
372.831696 225.0 
372.895111 113.0 
372.943665 116.0 
373.019226 301.0 
373.078094 89.0 
373.135956 544.0 
373.192108 83.0 
373.226501 140.0 
373.256592 276.0 
373.303284 181.0 
373.37204 753.0 
373.426056 282.0 
373.496582 369.0 
373.553619 68.0 
373.664459 500.0 
373.703735 311.0 
373.778656 317.0 
373.828491 217.0 
373.859161 271.0 
373.916473 368.0 
373.972595 632.0 
374.020325 217.0 
374.074554 637.0 
374.130554 644.0 
374.181793 528.0 
374.25 2695.0 
374.364075 872730.0 
374.427124 91.0 
374.464478 187.0 
374.499634 431.0 
374.536621 53.0 
374.570038 232.0 
374.616425 1040.0 
374.662415 715.0 
374.689545 795.0 
374.798248 386.0 
374.828766 1039.0 
374.883209 833.0 
374.913055 1303.0 
375.024536 680.0 
375.137939 1487.0 
375.22522 189.0 
375.265015 455.0 
375.36731 159547.0 
375.443024 326.0 
375.476624 287.0 
375.533936 127.0 
375.560089 215.0 
375.61853 30.0 
375.655457 343.0 
375.741913 73.0 
375.789978 308.0 
375.858215 306.0 
375.901306 261.0 
375.95108 57.0 
375.986084 195.0 
376.043732 173.0 
376.166901 105.0 
376.22168 460.0 
376.281006 215.0 
376.372467 4483.0 
376.447906 303.0 
376.535614 150.0 
376.690704 78.0 
376.721771 113.0 
376.764648 183.0 
376.795898 81.0 
376.845612 215.0 
376.952728 87.0 
376.999542 74.0 
377.070923 21.0 
377.113403 136.0 
377.154053 94.0 
377.245605 139.0 
377.301697 81.0 
377.358765 43.0 
377.387665 244.0 
377.440948 79.0 
377.486176 517.0 
377.556 151.0 
377.636292 41.0 
377.674072 135.0 
377.725281 442.0 
377.782318 129.0 
377.846863 447.0 
377.876434 395.0 
377.951324 353.0 
377.987152 241.0 
378.026886 190.0 
378.067963 272.0 
378.103485 117.0 
378.151001 75.0 
378.221405 45.0 
378.350159 54.0 
378.381561 47.0 
378.537903 209.0 
378.730011 85.0 
378.794098 236.0 
378.884277 106.0 
378.919312 239.0 
379.021423 149.0 
379.200867 105.0 
379.258026 41.0 
379.282135 42.0 
379.595886 72.0 
379.810364 77.0 
379.837189 57.0 
380.21048 387.0 
380.353485 26709.0 
380.744415 66.0 
380.876648 62.0 
380.967316 39.0 
381.249908 115.0 
381.355652 6764.0 
382.31427 163.0 
382.360809 432.0 
382.643707 96.0 
383.29007 171.0 
383.777832 27.0 
383.834656 92.0 
383.909058 155.0 
384.1138 148.0 
384.354797 708.0 
385.229492 273.0 
385.347992 168.0 
386.293304 97.0 
386.338196 83.0 
386.362854 119.0 
387.18692 41.0 
387.323547 173.0 
387.574768 67.0 
387.743896 77.0 
387.89856 291.0 
387.944427 292.0 
388.459137 31.0 
388.907501 70.0 
388.985321 288.0 
390.356049 203.0 
390.500214 242.0 
390.573273 97.0 
390.708862 22.0 
391.460571 106.0 
392.131287 80.0 
392.318085 353.0 
392.343658 493.0 
393.353058 702.0 
393.449677 319.0 
393.649872 93.0 
393.801666 126.0 
394.14447 129.0 
394.19693 112.0 
394.363373 153.0 
394.504944 367.0 
394.794952 87.0 
395.08252 211.0 
395.330811 72.0 
395.377777 214.0 
396.032562 37.0 
396.153015 49.0 
396.246887 57.0 
396.326416 165.0 
396.361237 286.0 
396.980591 66.0 
397.185944 72.0 
397.334167 103.0 
397.366791 43.0 
397.739014 47.0 
398.154388 227.0 
398.18161 179.0 
398.223938 184.0 
398.25415 108.0 
398.363586 29679.0 
398.583221 92.0 
398.620178 277.0 
398.769775 47.0 
398.857788 47.0 
398.948883 236.0 
399.102417 131.0 
399.367554 6375.0 
399.481384 104.0 
399.528442 211.0 
399.982239 285.0 
400.364929 701.0 
401.260193 63.0 
401.813416 75.0 
402.318848 187.0 
402.72052 93.0 
403.379791 148.0 
403.448639 118.0 
403.563995 199.0 
404.051666 22.0 
404.18869 151.0 
404.35025 1033.0 
404.770538 185.0 
405.35733 883.0 
405.652527 65.0 
406.19046 248.0 
406.364868 697.0 
406.736755 130.0 
406.889954 151.0 
408.351593 380.0 
409.345795 198.0 
410.037109 116.0 
410.360138 564.0 
410.691467 124.0 
411.368317 303.0 
412.636139 300.0 
414.409637 108.0 
414.529388 120.0 
414.882111 139.0 
415.348053 271.0 
415.429352 110.0 
415.876434 42.0 
416.150696 239.0 
416.271881 194.0 
416.375 36340.0 
416.446259 176.0 
416.527832 460.0 
416.726593 136.0 
417.043488 102.0 
417.085785 83.0 
417.275574 33.0 
417.375977 5671.0 
417.463013 58.0 
418.374725 697.0 
418.752228 45.0 
419.253784 218.0 
419.505341 193.0 
419.750641 147.0 
420.130341 267.0 
420.169312 266.0 
420.344421 422.0 
420.707123 115.0 
421.290039 85.0 
421.359161 276.0 
422.301758 194.0 
422.363525 4264.0 
423.298584 92.0 
423.361847 617.0 
423.884796 42.0 
424.216431 161.0 
425.040649 59.0 
427.746155 238.0 
428.349548 789.0 
428.618347 111.0 
429.374695 133.0 
429.96637 112.0 
430.049774 265.0 
430.572479 33.0 
431.354218 171.0 
432.14856 125.0 
432.76416 94.0 
432.95282 160.0 
433.734039 257.0 
434.362152 1146.0 
435.185944 59.0 
435.363159 146.0 
435.423737 130.0 
436.383148 378.0 
437.390045 161.0 
437.555603 182.0 
437.661224 183.0 
437.773468 176.0 
438.357239 593.0 
439.023804 300.0 
439.373047 443.0 
439.503754 140.0 
440.150452 181.0 
440.277313 278.0 
440.374878 4804.0 
440.457977 86.0 
440.550598 170.0 
441.126953 141.0 
441.186493 129.0 
441.383331 1015.0 
441.493622 31.0 
441.822937 21.0 
442.352844 119.0 
442.389191 149.0 
443.076813 88.0 
445.664429 249.0 
446.367279 1623.0 
447.21283 169.0 
447.338959 170.0 
447.374634 526.0 
447.649902 169.0 
448.977081 244.0 
449.301178 174.0 
450.132416 79.0 
451.528046 162.0 
451.670013 195.0 
452.079132 21.0 
452.377533 1543.0 
452.780396 225.0 
453.206787 226.0 
453.366119 754.0 
454.314178 180.0 
455.691589 177.0 
456.306335 120.0 
456.362854 159.0 
456.419128 229.0 
456.690277 68.0 
456.887634 92.0 
458.394806 514.0 
458.546997 258.0 
459.375946 133.0 
461.35965 121.0 
463.32605 188.0 
463.665009 204.0 
464.315521 140.0 
464.374329 7134.0 
464.546997 173.0 
465.387115 1041.0 
466.373901 465.0 
468.050934 177.0 
468.216492 71.0 
468.966248 125.0 
469.279999 68.0 
470.385284 1216.0 
471.391174 400.0 
473.657227 201.0 
473.939056 131.0 
476.129242 168.0 
476.961945 225.0 
478.062164 189.0 
480.317963 142.0 
480.554352 71.0 
481.020111 35.0 
481.839447 314.0 
482.170746 220.0 
482.28299 416.0 
482.385803 15969.0 
483.287354 130.0 
483.38736 5576.0 
484.07309 186.0 
484.310303 204.0 
484.402008 248.0 
484.621368 85.0 
484.798401 229.0 
484.841583 115.0 
485.625641 81.0 
485.694672 176.0 
486.039459 184.0 
486.095551 23.0 
486.828979 32.0 
487.193817 70.0 
488.312195 45.0 
488.742188 273.0 
488.860748 82.0 
489.542053 169.0 
489.938263 463.0 
490.683502 125.0 
491.398315 235.0 
492.288574 227.0 
492.867523 26.0 
493.18277 63.0 
493.730988 24.0 
494.498413 126.0 
494.730255 168.0 
495.165222 183.0 
495.51178 59.0 
496.248413 260.0 
498.649811 99.0 
499.05191 302.0 
499.306274 196.0 
499.391479 100.0 
499.442596 98.0 
499.651764 68.0 
499.722687 269.0 
500.187195 452.0 
500.216736 386.0 
500.395599 48888.0 
500.558533 95.0 
500.638855 32.0 
500.944061 128.0 
501.085205 197.0 
501.218872 193.0 
501.311829 138.0 
501.399902 9671.0 
501.49762 109.0 
502.335266 50.0 
502.408264 676.0 
503.408783 325.0 
503.92395 180.0 
504.160889 199.0 
504.474091 66.0 
504.774445 162.0 
505.980927 89.0 
506.858276 120.0 
507.507538 245.0 
509.088898 268.0 
511.029694 149.0 
511.154388 110.0 
512.743835 94.0 
513.631042 143.0 
514.05896 107.0 
514.21405 25.0 
514.88501 81.0 
515.344177 58.0 
515.491089 43.0 
515.567261 133.0 
515.879089 85.0 
516.401245 67.0 
516.453064 100.0 
516.495728 152.0 
516.540344 54.0 
516.827698 79.0 
516.879089 128.0 
517.399841 196.0 
517.584229 194.0 
517.87323 70.0 
517.920593 25.0 
518.170227 483.0 
518.257935 693.0 
518.316528 1429.0 
518.406189 85529.0 
518.560486 25.0 
518.643494 214.0 
518.895996 168.0 
518.928833 134.0 
519.052307 113.0 
519.112183 67.0 
519.165955 76.0 
519.2276 167.0 
519.274536 498.0 
519.320007 613.0 
519.408569 19161.0 
519.508057 153.0 
519.530823 137.0 
519.627563 50.0 
519.675781 213.0 
519.773193 134.0 
519.885681 39.0 
519.920105 58.0 
520.080811 40.0 
520.125427 43.0 
520.317139 73.0 
520.409241 1102.0 
520.518555 45.0 
520.707031 129.0 
521.072876 73.0 
521.209229 92.0 
521.604309 28.0 
522.190491 81.0 
522.242065 214.0 
522.315674 97.0 
522.385803 181.0 
522.56665 230.0 
522.628662 141.0 
522.865112 65.0 
523.684387 78.0 
523.736816 118.0 
524.463623 32.0 
524.537354 57.0 
524.605774 208.0 
526.006409 79.0 
527.421448 123.0 
527.608398 30.0 
527.639343 80.0 
527.820007 324.0 
527.881714 22.0 
528.249023 83.0 
528.509399 81.0 
528.964111 66.0 
529.00946 45.0 
529.228333 271.0 
529.383789 77.0 
529.90918 133.0 
530.014893 156.0 
530.177002 79.0 
530.268433 71.0 
530.355957 140.0 
530.431519 298.0 
530.495972 82.0 
530.521851 69.0 
530.704468 111.0 
530.743347 76.0 
530.897949 143.0 
531.129272 138.0 
531.496826 376.0 
531.539978 78.0 
531.605469 191.0 
531.75293 91.0 
531.899536 153.0 
531.944214 182.0 
531.981812 264.0 
532.069336 133.0 
532.197449 195.0 
532.274536 121.0 
532.322449 73.0 
532.356506 63.0 
532.528564 137.0 
532.583618 69.0 
532.62085 106.0 
532.769348 117.0 
532.858521 139.0 
532.923157 254.0 
532.966431 205.0 
533.009216 179.0 
533.055115 25.0 
533.097778 163.0 
533.194214 63.0 
533.237244 81.0 
533.328613 229.0 
533.385498 266.0 
533.433167 240.0 
533.507019 53.0 
533.552063 85.0 
533.622559 106.0 
533.69281 260.0 
533.755737 174.0 
533.83606 223.0 
533.898865 123.0 
533.931946 216.0 
533.97644 71.0 
534.039551 59.0 
534.141479 192.0 
534.217712 89.0 
534.311584 557.0 
534.385742 128.0 
534.423706 291.0 
534.470886 135.0 
534.520081 59.0 
534.553345 33.0 
534.634949 198.0 
534.704041 386.0 
534.785828 67.0 
534.888367 249.0 
534.929749 195.0 
534.977966 287.0 
535.100586 173.0 
535.139038 153.0 
535.188049 140.0 
535.256348 169.0 
535.340637 127.0 
535.43457 600.0 
535.502197 92.0 
535.59259 190.0 
535.656006 250.0 
535.702637 519.0 
535.779663 271.0 
535.81134 344.0 
535.897278 409.0 
535.955872 291.0 
535.997986 263.0 
536.052063 838.0 
536.112488 442.0 
536.166626 1047.0 
536.416626 898585.0 
536.552612 108.0 
536.601868 193.0 
536.72467 3662.0 
536.813782 789.0 
536.86554 115.0 
536.915039 59.0 
536.970459 697.0 
537.075134 3602.0 
537.134216 366.0 
537.169922 384.0 
537.210327 483.0 
537.280823 1489.0 
537.420288 191721.0 
537.489136 302.0 
537.600403 430.0 
537.65509 266.0 
537.772217 192.0 
537.838745 569.0 
537.899292 368.0 
537.948486 281.0 
538.024048 111.0 
538.07312 225.0 
538.116516 260.0 
538.209717 536.0 
538.262573 158.0 
538.295532 109.0 
538.345581 290.0 
538.421936 9650.0 
538.499268 461.0 
538.552002 257.0 
538.603088 170.0 
538.666931 110.0 
538.737244 345.0 
538.84259 64.0 
538.907104 34.0 
538.95929 186.0 
539.020874 72.0 
539.066223 124.0 
539.126099 329.0 
539.233398 85.0 
539.295044 258.0 
539.371033 68.0 
539.428223 50.0 
539.521606 63.0 
539.571045 69.0 
539.654541 134.0 
539.743591 200.0 
539.839233 71.0 
539.882324 107.0 
539.919983 84.0 
539.959717 32.0 
540.007629 360.0 
540.055115 346.0 
540.166077 381.0 
540.247253 147.0 
540.283203 189.0 
540.333313 240.0 
540.381226 205.0 
540.430908 404.0 
540.482117 377.0 
540.584839 488.0 
540.671875 432.0 
540.729187 409.0 
540.763794 431.0 
540.806519 201.0 
540.910645 97.0 
541.098572 127.0 
541.203552 85.0 
541.239929 141.0 
541.353149 127.0 
541.403503 266.0 
541.442322 236.0 
541.562256 122.0 
541.608337 246.0 
541.686768 79.0 
541.783569 120.0 
541.851685 114.0 
542.016724 38.0 
542.077087 238.0 
542.509399 75.0 
542.55896 54.0 
543.9776 136.0 
544.473083 31.0 
545.011353 113.0 
545.407288 26.0 
545.561462 45.0 
545.795288 78.0 
546.023132 46.0 
547.096436 99.0 
548.409546 178.0 
550.443848 51.0 
551.022095 88.0 
551.613892 26.0 
551.943665 56.0 
552.171631 151.0 
552.30365 101.0 
552.474182 33.0 
552.857483 98.0 
553.965759 130.0 
555.229675 55.0 
556.983459 60.0 
557.651489 30.0 
558.01947 50.0 
558.586853 121.0 
559.318176 177.0 
559.4599 53.0 
559.520264 92.0 
559.97229 79.0 
560.265442 65.0 
560.76062 163.0 
560.801636 33.0 
565.272095 51.0 
565.587708 37.0 
565.667542 96.0 
567.012024 60.0 
597.806519 106.0 
601.76001 49.0 
607.405823 80.0 
609.164185 144.0 
627.287903 171.0 
636.543823 21.0 
643.963379 21.0 
651.326416 221.0 
659.704102 21.0 
660.095642 21.0 
674.192627 21.0 
694.552979 21.0 
711.971558 49.0 
728.254211 21.0 
755.929993 21.0 
756.595398 86.0 
764.985962 35.0 
768.26532 78.0 
768.488464 21.0 
771.150696 21.0 
773.787842 152.0 
781.016479 79.0 
785.374939 173.0 
785.465881 49.0 
799.050903 21.0 
817.046082 115.0 
827.529846 145.0 
829.735168 112.0 
830.789673 21.0 
840.079773 30.0 
850.978394 44.0 
865.005371 61.0 
892.16864 21.0 
902.817078 80.0 
907.660095 21.0 
914.873047 169.0 
929.767212 129.0 
930.016846 74.0 
940.861694 122.0 
944.577759 29.0 
949.863525 21.0 
951.213562 128.0 
963.417236 22.0 
966.920471 22.0 
975.854187 98.0 
985.402039 71.0 
992.230774 21.0 
1021.255554 21.0 
1021.741821 28.0 
1038.9021 140.0 
1069.462402 21.0 
1079.076538 69.0 
1086.715942 22.0 
1090.47229 89.0 
1105.786255 22.0 
1173.36084 21.0 
1189.513062 22.0 
1190.38916 28.0 
1195.154663 142.0 
1212.154053 191.0 
1227.316162 328.0 
1233.441406 68.0 
1255.787964 26.0 
1257.390503 52.0 
1264.572632 21.0 
1273.028442 62.0 
1278.609253 72.0 
1289.235596 84.0 
1295.128052 21.0 
1298.429932 45.0 
1317.007324 198.0 
1319.433105 21.0 
1341.348022 81.0 
1377.716919 21.0 
1399.413574 266.0 
1423.890503 46.0 
1426.225952 187.0 
1429.982178 21.0 
1442.239746 28.0 
1443.799805 218.0 
1444.671143 215.0 
1449.072144 245.0 
1453.777466 21.0 
1456.244385 269.0 
1457.425293 297.0 
1460.283203 86.0 
1481.845947 22.0 
1492.646484 23.0 
1515.706299 21.0 
1528.045044 89.0 
1534.569824 74.0 
1539.223999 182.0 
1578.335083 334.0 
1607.374878 21.0 
1615.284302 22.0 
1615.596436 41.0 
1630.035767 269.0 
1645.895264 21.0 
1655.453613 225.0 
1665.835693 30.0 
1681.574829 262.0 
1692.342773 182.0 
1703.817139 21.0 
1718.104248 255.0 
1724.988892 131.0 
1725.715942 294.0 
1728.765991 274.0 
1733.110718 22.0 
1739.196045 25.0 
1755.206787 157.0 
1758.495605 155.0 
1762.308472 28.0 
1783.987183 118.0 
1796.312988 164.0 
1804.085571 234.0 
1807.459961 167.0 
1808.201782 216.0 
1814.297729 74.0 
1842.219849 178.0 
1845.981812 199.0 
1858.765381 299.0 
1862.63855 286.0 
1863.702026 183.0 
1867.152588 28.0 
1885.107666 22.0 
1889.855103 266.0 
1893.319092 38.0 
1898.430786 183.0 
1898.815674 106.0 
1899.140381 25.0 
1900.490479 29.0 
1905.707397 190.0 
1907.442261 158.0 
1912.731323 304.0 
1914.756714 215.0 
1924.810669 279.0 
1926.680176 22.0 
1930.587524 111.0 
1935.557129 240.0 
1937.247559 29.0 
1939.310059 367.0 
1944.601562 100.0 
1951.119873 272.0 
1957.312866 328.0 
1963.380371 22.0 
1964.452759 173.0 
1979.993774 240.0 
1988.90332 195.0 
2002.404785 200.0 
2003.083618 284.0 
END IONS

BEGIN IONS
TITLE=Scan Number: 274
PEPMASS=1013.53003
CHARGE=1+
MSLEVEL=2
FILENAME=C9_GC9_01_2804.mzXML
INSTRUMENT=ion trap
SCANS=274
SMILES=CC1C2C3=CCC4C5(C)CCC(OC6OC(COC7OCC(O)C(OC8OCC(O)C(O)C8O)C7O)C(OC9OCC(O)C(O)C9O)C(O)C6O)C(C)(C)C5CCC4(C)C3(C)CCC2(CCC1=C)C(O)=O
INCHIKEY=QSBIUKCZJBBYIL-UHFFFAOYSA-N
71.005096 176.0 
73.031052 1055.0 
85.028145 1486.0 
87.043205 524.0 
88.046188 214.0 
92.212982 284.0 
93.069 262.0 
95.086906 484.0 
97.029129 3612.0 
98.031059 867.0 
99.045517 579.0 
99.889587 86.0 
103.040421 184.0 
103.737625 372.0 
105.059029 131.0 
107.085938 447.0 
107.766174 219.0 
109.031517 224.0 
109.10186 797.0 
110.068405 276.0 
110.111458 203.0 
111.047073 234.0 
115.040131 6530.0 
116.040977 169.0 
119.085564 287.0 
121.101891 610.0 
122.104172 240.0 
122.913521 193.0 
123.115654 282.0 
125.025322 270.0 
127.041618 137.0 
127.078186 145.0 
128.04306 374.0 
129.055817 173.0 
131.039169 142.0 
131.078354 179.0 
133.050751 5924.0 
133.102249 818.0 
134.052582 549.0 
134.104935 160.0 
134.917648 146.0 
135.114639 591.0 
136.681015 142.0 
137.060959 220.0 
137.126266 194.0 
138.137787 137.0 
139.039398 400.0 
139.970734 229.0 
140.040604 191.0 
144.694839 200.0 
145.050461 2353.0 
145.10199 230.0 
145.432632 134.0 
146.054993 160.0 
147.115555 410.0 
148.093948 332.0 
149.046555 703.0 
149.131683 908.0 
151.061813 243.0 
153.057434 329.0 
155.031036 172.0 
157.04985 1603.0 
159.118088 309.0 
161.132721 605.0 
162.044098 145.0 
163.06131 1447.0 
163.149689 728.0 
164.066605 184.0 
169.050018 989.0 
169.101807 254.0 
171.118073 116.0 
173.092651 186.0 
173.1259 217.0 
174.140823 138.0 
175.060638 348.0 
175.151489 295.0 
176.151215 169.0 
177.165176 627.0 
178.171112 115.0 
179.142715 157.0 
181.049072 707.0 
183.095001 250.0 
187.059692 319.0 
187.150818 1140.0 
188.15657 133.0 
189.164642 1569.0 
191.181168 1623.0 
193.016434 184.0 
193.048599 312.0 
195.077728 221.0 
198.139755 208.0 
199.03595 224.0 
199.062103 441.0 
201.072968 366.0 
201.16333 2125.0 
202.168671 550.0 
203.180542 1850.0 
203.699402 158.0 
204.178772 180.0 
205.199661 675.0 
207.135376 192.0 
207.173965 657.0 
209.193771 179.0 
211.060547 4134.0 
211.153122 443.0 
212.0625 802.0 
213.065536 216.0 
213.159058 262.0 
215.185867 228.0 
215.247696 185.0 
217.071106 697.0 
217.19249 664.0 
218.080429 216.0 
219.173492 180.0 
221.200592 365.0 
223.061737 780.0 
227.181015 201.0 
229.072357 6790.0 
229.197662 677.0 
230.074203 1452.0 
231.076385 179.0 
231.821548 156.0 
233.151245 573.0 
235.161636 169.0 
235.209961 234.0 
236.146057 92.0 
239.186478 173.0 
241.071381 1381.0 
242.073105 253.0 
243.216339 255.0 
245.1586 474.0 
247.08194 1691.0 
247.174484 648.0 
248.087418 142.0 
253.189102 145.0 
259.08374 2597.0 
260.055908 111.0 
260.085571 191.0 
261.091125 217.0 
261.183838 471.0 
265.090973 5844.0 
266.098816 217.0 
267.093658 133.0 
267.215027 315.0 
269.223724 497.0 
273.177734 122.0 
277.091461 991.0 
277.253265 211.0 
278.093597 139.0 
281.219208 99.0 
284.949463 289.0 
285.18454 224.0 
287.198242 127.0 
294.709503 135.0 
295.021088 247.0 
295.103699 9136.0 
296.110199 427.0 
297.096436 343.0 
315.232391 130.0 
325.090393 155.0 
326.207397 200.0 
327.232086 426.0 
343.094727 309.0 
355.270477 183.0 
356.270752 143.0 
361.086884 128.0 
361.200958 158.0 
367.25293 173.0 
373.114319 356.0 
383.2677 168.0 
391.11792 269.0 
391.331848 700.0 
392.331909 134.0 
393.273163 254.0 
393.355896 285.0 
394.366882 163.0 
395.290405 224.0 
397.134583 172.0 
409.347198 898.0 
410.358368 320.0 
411.362946 421.0 
412.357422 186.0 
425.26944 160.0 
427.149109 1518.0 
427.702637 116.0 
428.351318 131.0 
433.720062 100.0 
437.291443 318.0 
437.343933 9134.0 
437.963501 151.0 
438.3479 1874.0 
439.312439 169.0 
439.34668 394.0 
440.354401 215.0 
455.351166 1458.0 
456.35791 656.0 
490.342773 130.0 
492.35022 120.0 
499.368958 139.0 
504.362061 136.0 
515.328369 178.0 
523.174377 162.0 
533.368347 218.0 
551.366028 124.0 
553.379333 162.0 
554.411133 166.0 
560.183655 111.0 
569.383362 361.0 
599.317017 110.0 
599.391052 169.0 
617.41748 204.0 
631.171814 141.0 
665.421082 130.0 
689.627197 155.0 
703.442993 228.0 
749.454834 238.0 
994.739807 153.0 
995.49353 116.0 
1547.376221 267.0 
1760.018677 297.0 
END IONS

BEGIN IONS
TITLE=Scan Number: 275
PEPMASS=1030.56006
CHARGE=1+
MSLEVEL=2
FILENAME=C9_GC9_01_2804.mzXML
INSTRUMENT=ion trap
SCANS=275
SMILES=CC1C2C3=CCC4C5(C)CCC(OC6OC(COC7OCC(O)C(OC8OCC(O)C(O)C8O)C7O)C(OC9OCC(O)C(O)C9O)C(O)C6O)C(C)(C)C5CCC4(C)C3(C)CCC2(CCC1=C)C(O)=O
INCHIKEY=QSBIUKCZJBBYIL-UHFFFAOYSA-N
70.057991 229.0 
71.007507 188.0 
73.029808 4072.0 
75.097404 274.0 
83.083382 162.0 
84.078522 249.0 
85.028503 3085.0 
86.019218 162.0 
86.034439 272.0 
86.190109 139.0 
87.038147 261.0 
87.060562 231.0 
91.530663 139.0 
93.070229 266.0 
95.086304 545.0 
96.558258 150.0 
96.812759 179.0 
97.028755 10140.0 
97.201439 90.0 
98.032303 553.0 
99.0467 203.0 
101.025269 173.0 
103.040565 1145.0 
104.462929 139.0 
106.62899 148.0 
107.090294 170.0 
109.028442 600.0 
109.100471 736.0 
110.032753 202.0 
111.046432 713.0 
111.08123 211.0 
113.022041 347.0 
114.651512 211.0 
114.999046 140.0 
115.039299 12255.0 
115.997078 159.0 
116.041908 325.0 
119.053101 154.0 
119.08625 824.0 
121.030434 219.0 
121.102638 1209.0 
122.105148 161.0 
123.045204 230.0 
123.118156 914.0 
124.12455 146.0 
127.039864 2843.0 
128.04332 156.0 
129.125626 110.0 
131.090927 221.0 
132.064117 174.0 
133.050583 9109.0 
133.102264 790.0 
134.056152 810.0 
135.118423 658.0 
137.023102 185.0 
137.060394 178.0 
137.132736 629.0 
138.141968 183.0 
139.042526 455.0 
139.146118 159.0 
141.061569 210.0 
143.034973 540.0 
143.082199 275.0 
145.04982 3057.0 
146.054123 200.0 
147.046829 241.0 
147.119339 311.0 
148.048386 244.0 
149.046204 936.0 
149.132904 680.0 
150.077408 183.0 
151.040314 517.0 
151.060455 373.0 
151.091537 191.0 
153.057709 361.0 
153.089233 223.0 
155.038803 330.0 
157.050812 2745.0 
157.105591 134.0 
159.117279 671.0 
161.050766 245.0 
161.133209 463.0 
163.062805 3554.0 
163.149216 943.0 
163.793015 133.0 
164.044327 274.0 
165.063095 185.0 
165.607193 215.0 
169.049789 2289.0 
169.103363 133.0 
170.053375 361.0 
170.994324 366.0 
173.022522 223.0 
173.132828 767.0 
175.01207 195.0 
175.06575 618.0 
175.154465 324.0 
176.067276 147.0 
177.009232 131.0 
177.050659 150.0 
177.16571 785.0 
179.09494 285.0 
179.180038 397.0 
181.050568 554.0 
182.633148 180.0 
183.062973 326.0 
185.135544 361.0 
187.058243 618.0 
187.147141 1065.0 
188.156693 318.0 
189.164337 884.0 
191.104004 120.0 
191.145187 589.0 
191.182297 1912.0 
192.657852 283.0 
193.049545 882.0 
193.116608 136.0 
195.175079 218.0 
197.130341 158.0 
199.058044 1418.0 
199.144226 359.0 
200.149445 145.0 
200.69516 160.0 
201.161591 1256.0 
202.168579 178.0 
203.108673 203.0 
203.179474 1024.0 
204.184174 187.0 
205.061203 209.0 
205.200943 1337.0 
206.196808 336.0 
208.178406 152.0 
210.873581 116.0 
211.060211 10405.0 
211.669342 116.0 
212.06749 415.0 
213.063217 263.0 
213.165909 434.0 
213.650208 117.0 
213.794266 282.0 
214.063141 93.0 
215.140411 149.0 
215.175629 524.0 
217.07074 1635.0 
217.12294 337.0 
217.199341 216.0 
218.067734 353.0 
218.166489 207.0 
219.065735 253.0 
219.094467 181.0 
219.169312 217.0 
221.150436 272.0 
223.060181 971.0 
227.101273 182.0 
227.177399 215.0 
227.247177 142.0 
229.071289 6529.0 
229.159607 100.0 
229.196472 365.0 
230.076736 1483.0 
230.165649 196.0 
231.16687 128.0 
231.203384 155.0 
233.125732 160.0 
233.149994 204.0 
236.685364 111.0 
241.070847 1699.0 
241.189819 115.0 
242.071655 420.0 
245.1483 305.0 
247.084717 2096.0 
247.14917 186.0 
247.175079 939.0 
248.082108 345.0 
251.187027 166.0 
252.318939 136.0 
253.209076 238.0 
257.158661 232.0 
257.230164 179.0 
258.546844 178.0 
259.083374 3823.0 
259.171112 505.0 
259.22995 201.0 
259.360413 191.0 
260.064758 106.0 
260.099701 183.0 
261.405121 130.0 
264.46283 303.0 
264.705719 134.0 
265.092346 9260.0 
266.095245 648.0 
267.091858 194.0 
267.214203 168.0 
269.225433 333.0 
275.210052 145.0 
277.090698 529.0 
282.128784 170.0 
287.272552 137.0 
295.103912 15698.0 
295.608704 157.0 
296.10788 1117.0 
298.194641 167.0 
299.198547 178.0 
303.155518 175.0 
307.083344 293.0 
309.053772 187.0 
313.109802 264.0 
319.092957 312.0 
319.192688 181.0 
322.26413 199.0 
327.266937 122.0 
331.848389 337.0 
343.105042 710.0 
345.095062 163.0 
353.267975 317.0 
355.11026 210.0 
361.129364 195.0 
367.25647 113.0 
373.11554 832.0 
376.824982 232.0 
379.130341 343.0 
389.308533 116.0 
391.125061 1362.0 
391.337524 984.0 
392.335785 233.0 
393.349762 474.0 
395.285461 130.0 
397.14389 515.0 
409.135284 127.0 
409.343903 545.0 
410.361572 94.0 
411.178772 140.0 
411.287811 286.0 
411.346863 140.0 
412.959045 84.0 
427.145416 4330.0 
427.980682 172.0 
429.311646 149.0 
437.197021 129.0 
437.343872 10443.0 
438.344635 3359.0 
438.490387 85.0 
439.308258 231.0 
439.35968 324.0 
444.37793 84.0 
455.280182 167.0 
455.347015 467.0 
456.361267 419.0 
457.297729 135.0 
479.354828 138.0 
505.146271 137.0 
516.380127 140.0 
523.377197 143.0 
533.363586 190.0 
542.237793 144.0 
542.410522 179.0 
559.22052 175.0 
569.359375 220.0 
570.388 169.0 
576.217896 199.0 
599.401794 123.0 
644.388611 142.0 
655.396606 187.0 
665.371643 145.0 
673.801331 166.0 
674.437805 123.0 
699.497559 140.0 
701.442139 203.0 
919.424683 114.0 
1015.545837 155.0 
1032.485962 387.0 
1033.001465 426.0 
1051.451172 103.0 
1541.008423 273.0 
1787.551636 105.0 
1859.592285 195.0 
END IONS

BEGIN IONS
TITLE=Scan Number: 276
PEPMASS=247.06
CHARGE=1+
MSLEVEL=2
FILENAME=E12_GE12_01_2820.mzXML
INSTRUMENT=ion trap
SCANS=276
SMILES=COC1=C2OC=CC2=C3OC(=O)C=CC3=C1OC
INCHIKEY=BQPRWZCEKZLBHL-UHFFFAOYSA-N
72.196693 146.0 
73.674171 238.0 
77.039436 1324.0 
78.025215 180.0 
79.020409 431.0 
83.689972 283.0 
86.271881 232.0 
88.698563 156.0 
89.040291 141.0 
90.04921 448.0 
91.019981 256.0 
91.05442 3053.0 
91.71489 139.0 
92.026115 171.0 
92.054924 225.0 
92.123352 129.0 
93.603073 215.0 
94.871407 255.0 
95.012482 152.0 
95.05188 219.0 
95.898384 194.0 
98.843231 307.0 
99.549026 225.0 
99.728592 170.0 
102.047363 5680.0 
102.556709 284.0 
103.053047 591.0 
103.746666 68.0 
104.012299 201.0 
104.060112 130.0 
105.005287 260.0 
105.035027 7801.0 
106.038071 545.0 
106.83709 182.0 
107.000191 437.0 
107.046867 204.0 
110.05378 272.0 
113.041794 168.0 
114.047516 566.0 
118.040588 1445.0 
118.426048 283.0 
119.05011 2391.0 
119.219452 118.0 
120.024307 175.0 
120.056374 444.0 
122.096291 293.0 
123.043839 127.0 
125.109802 92.0 
129.037247 807.0 
130.041321 5353.0 
131.027466 392.0 
131.050171 10950.0 
131.090424 151.0 
131.116318 75.0 
131.630966 141.0 
132.004669 262.0 
132.05423 657.0 
133.028778 6081.0 
133.177277 78.0 
134.03299 668.0 
134.459305 167.0 
135.009155 603.0 
139.856934 118.0 
140.026077 278.0 
140.859711 210.0 
141.024857 202.0 
142.038895 751.0 
143.014511 934.0 
143.041977 441.0 
144.020508 652.0 
144.236099 135.0 
145.030899 1544.0 
146.037109 1361.0 
146.564377 188.0 
147.044434 16223.0 
147.116943 111.0 
148.050339 2729.0 
148.964844 94.0 
149.047394 213.0 
149.292923 242.0 
156.021561 1092.0 
156.544937 129.0 
157.024277 698.0 
157.098633 232.0 
158.037643 14848.0 
159.044632 5053.0 
160.048111 715.0 
160.384033 94.0 
161.024002 21813.0 
161.061569 126.0 
161.129395 154.0 
162.005478 197.0 
162.033997 1833.0 
162.99382 135.0 
163.073639 86.0 
164.005722 168.0 
169.032898 268.0 
169.197998 276.0 
171.905182 132.0 
172.051239 180.0 
173.023056 1821.0 
174.033905 2518.0 
175.038788 3638.0 
176.011475 138.0 
176.049072 7106.0 
177.045135 266.0 
177.812149 94.0 
178.168015 177.0 
178.851135 178.0 
179.033218 344.0 
179.073868 123.0 
184.949005 101.0 
185.025543 1233.0 
186.03212 12999.0 
187.039536 5015.0 
187.787033 68.0 
188.048584 2425.0 
189.019653 11761.0 
189.986526 440.0 
190.026306 3243.0 
190.461365 155.0 
191.036346 498.0 
191.074249 1055.0 
191.336884 76.0 
194.062241 148.0 
197.305405 271.0 
197.865494 206.0 
198.416763 228.0 
199.345444 245.0 
200.955994 173.0 
201.015686 415.0 
201.402069 66.0 
202.028168 2683.0 
202.944183 132.0 
202.986404 547.0 
203.034836 29877.0 
203.997314 98.0 
204.040894 7177.0 
204.976013 217.0 
205.736008 230.0 
207.024628 321.0 
212.255661 77.0 
213.027527 254.0 
214.027283 2901.0 
214.831177 149.0 
214.987778 178.0 
215.036026 11666.0 
215.487244 65.0 
215.919312 165.0 
215.975906 140.0 
216.039917 1752.0 
216.935745 209.0 
217.014252 35402.0 
217.193192 83.0 
217.65332 98.0 
217.942749 193.0 
218.021866 3487.0 
219.028336 488.0 
219.065216 820.0 
219.160004 161.0 
222.903244 146.0 
229.015198 6850.0 
229.722198 125.0 
229.984299 196.0 
230.018417 937.0 
230.878494 235.0 
231.030502 60728.0 
231.231094 123.0 
231.627563 153.0 
231.723526 149.0 
231.899826 140.0 
231.945663 225.0 
232.038193 67410.0 
232.121307 102.0 
232.370285 122.0 
232.93158 109.0 
233.041229 2872.0 
233.586929 71.0 
233.668457 165.0 
233.691238 205.0 
233.755203 200.0 
233.784851 172.0 
234.551727 102.0 
234.98967 97.0 
235.029129 411.0 
244.281921 148.0 
245.400787 77.0 
247.062042 65211.0 
248.019028 227.0 
248.066605 3712.0 
249.336884 146.0 
257.100983 80.0 
258.050415 144.0 
262.845978 73.0 
274.363953 78.0 
291.038208 131.0 
1681.319946 311.0 
1729.91748 168.0 
1746.524536 146.0 
1791.263794 161.0 
1854.390503 150.0 
1897.521118 325.0 
END IONS

BEGIN IONS
TITLE=Scan Number: 278
PEPMASS=385.12799
CHARGE=1+
MSLEVEL=2
FILENAME=E12_GE12_01_2820.mzXML
INSTRUMENT=ion trap
SCANS=278
SMILES=OC1C=CC(OC(=O)C2=CC=CC=C2)C(O)C1(O)COC(=O)C3=CC=CC=C3
INCHIKEY=AWCUZBLYCWUTRL-UHFFFAOYSA-N
71.977585 273.0 
74.563782 119.0 
76.968979 287.0 
77.039436 5907.0 
78.045868 414.0 
79.054932 8329.0 
81.034439 383.0 
81.324417 166.0 
81.666931 371.0 
83.046631 73.0 
89.983315 118.0 
91.927834 225.0 
93.034981 1903.0 
93.072449 220.0 
94.042503 155.0 
94.931686 252.0 
95.006538 313.0 
95.050011 31086.0 
96.053207 2115.0 
96.753555 273.0 
100.080215 207.0 
104.449829 103.0 
104.594772 128.0 
104.942261 294.0 
104.975754 464.0 
105.034805 199799.0 
105.163933 235.0 
105.189362 158.0 
105.34124 134.0 
105.470139 125.0 
105.760323 129.0 
105.852264 126.0 
106.038376 9935.0 
106.094276 110.0 
106.478394 104.0 
106.798576 80.0 
106.941017 62.0 
107.247246 162.0 
108.154922 116.0 
108.35762 185.0 
109.101112 132.0 
110.988991 276.0 
111.043892 3311.0 
112.047401 353.0 
114.065208 205.0 
121.04174 257.0 
122.336151 143.0 
122.596878 97.0 
122.901085 134.0 
122.992622 156.0 
123.044884 72950.0 
123.121735 116.0 
123.21035 99.0 
123.244484 166.0 
123.379059 76.0 
123.829018 107.0 
124.048355 5555.0 
124.562065 214.0 
124.829544 148.0 
124.907661 61.0 
124.986893 194.0 
125.05278 226.0 
128.061096 201.0 
137.05983 139.0 
141.055283 2966.0 
142.05777 202.0 
147.082489 128.0 
159.791702 114.0 
163.036469 92.0 
164.045975 268.0 
165.104218 167.0 
187.075104 274.0 
215.067825 453.0 
217.090286 185.0 
219.089554 165.0 
227.006882 74.0 
227.070435 1865.0 
228.062256 143.0 
245.028931 102.0 
245.082581 3269.0 
245.449844 123.0 
245.503998 62.0 
245.593399 167.0 
246.072556 216.0 
246.0905 247.0 
249.043274 157.0 
263.095673 1902.0 
264.091888 197.0 
264.16684 155.0 
275.069489 128.0 
319.05777 127.0 
354.146515 130.0 
367.12088 376.0 
368.080688 161.0 
385.236694 144.0 
386.196289 103.0 
1210.186768 222.0 
1252.177612 95.0 
1297.998779 203.0 
1360.435181 234.0 
1425.333252 193.0 
1430.917358 234.0 
1532.220337 231.0 
1594.090454 359.0 
1642.717651 264.0 
1651.571045 206.0 
1666.336304 183.0 
1689.966187 139.0 
1764.515991 210.0 
1810.299805 103.0 
1847.130005 379.0 
1889.46582 289.0 
1918.951294 254.0 
1922.632202 318.0 
1956.761475 81.0 
1971.156372 138.0 
END IONS

BEGIN IONS
TITLE=Scan Number: 280
PEPMASS=402.155
CHARGE=1+
MSLEVEL=2
FILENAME=E12_GE12_01_2820.mzXML
INSTRUMENT=ion trap
SCANS=280
SMILES=OC1C=CC(OC(=O)C2=CC=CC=C2)C(O)C1(O)COC(=O)C3=CC=CC=C3
INCHIKEY=AWCUZBLYCWUTRL-UHFFFAOYSA-N
77.03936 1094.0 
79.05587 2132.0 
80.056915 156.0 
80.597107 116.0 
81.036079 179.0 
81.187828 120.0 
83.054085 404.0 
84.041527 338.0 
89.490799 174.0 
93.015656 165.0 
93.034836 1295.0 
95.049942 15441.0 
96.053635 773.0 
97.03006 175.0 
99.812126 119.0 
104.340637 277.0 
104.878662 107.0 
104.940376 280.0 
105.0345 71591.0 
105.260529 107.0 
106.038963 4984.0 
106.412102 112.0 
106.492058 191.0 
109.85994 104.0 
111.046402 1696.0 
112.048332 336.0 
112.442596 98.0 
113.060211 207.0 
122.597946 165.0 
123.045296 29339.0 
123.375145 147.0 
124.04882 1202.0 
125.04966 195.0 
125.076241 151.0 
134.652725 91.0 
141.055008 1003.0 
151.117615 193.0 
158.072693 317.0 
161.02182 143.0 
161.099899 243.0 
163.038971 437.0 
163.081131 238.0 
169.083069 287.0 
187.07132 145.0 
199.079971 283.0 
201.026901 142.0 
203.038239 264.0 
215.072647 398.0 
217.017624 251.0 
226.22374 276.0 
227.073242 264.0 
228.073196 287.0 
232.069214 172.0 
243.140808 170.0 
245.082214 2502.0 
246.084702 273.0 
253.183411 141.0 
263.092407 2039.0 
264.094666 453.0 
367.11676 241.0 
368.245758 146.0 
970.058411 118.0 
1610.296997 215.0 
1700.067749 325.0 
1848.857788 339.0 
1898.640137 292.0 
END IONS

BEGIN IONS
TITLE=Scan Number: 281
PEPMASS=444.202
CHARGE=1+
MSLEVEL=2
FILENAME=E12_GE12_01_2820.mzXML
INSTRUMENT=ion trap
SCANS=281
SMILES=C\C=C(\C)C(=O)OC1C(OC2=CC=C3C=CC(=O)OC3=C12)C(C)(C)OC(=O)C=C(C)C
INCHIKEY=XAQHSTCVGOTLHK-AUWJEWJLSA-N
77.564194 176.0 
78.951645 322.0 
80.14518 275.0 
83.051109 652.0 
86.166191 338.0 
89.039085 214.0 
91.054153 210.0 
91.536095 326.0 
92.295303 113.0 
93.650818 243.0 
93.712387 150.0 
97.051971 266.0 
107.052338 175.0 
109.066422 113.0 
115.053268 393.0 
119.044144 231.0 
124.068787 165.0 
125.667099 209.0 
128.062973 3617.0 
129.071701 1314.0 
130.074219 213.0 
131.049728 572.0 
133.098984 125.0 
134.034348 262.0 
134.953445 128.0 
141.067413 460.0 
142.074188 174.0 
143.050293 877.0 
143.085754 9533.0 
144.087692 110.0 
144.186768 206.0 
144.976303 159.0 
146.047562 200.0 
147.04393 548.0 
147.869614 173.0 
152.060104 360.0 
153.070602 2156.0 
154.076462 999.0 
155.038055 241.0 
155.061996 1189.0 
155.085098 1714.0 
155.187347 99.0 
156.036118 349.0 
156.057587 786.0 
156.082886 162.0 
157.066574 1027.0 
158.043518 233.0 
159.045822 3654.0 
160.013184 118.0 
160.041763 242.0 
161.061722 188.0 
163.032333 195.0 
166.607605 295.0 
168.052414 305.0 
169.060074 431.0 
170.084854 147.0 
170.952286 384.0 
171.043762 5729.0 
171.081024 8080.0 
171.916489 130.0 
172.051392 164.0 
172.084808 980.0 
173.105286 143.0 
175.039886 91.0 
175.728149 175.0 
176.047455 83.0 
177.062286 268.0 
180.734924 326.0 
181.065384 1736.0 
182.072693 620.0 
183.082123 392.0 
183.775208 122.0 
183.983307 194.0 
184.052032 5050.0 
185.05838 2390.0 
186.031601 870.0 
186.054764 335.0 
187.038422 1804.0 
189.042969 122.0 
191.350128 225.0 
191.385559 108.0 
197.958588 220.0 
198.067154 257.0 
198.971771 160.0 
199.039581 22542.0 
199.075333 13273.0 
199.775467 87.0 
200.041397 2481.0 
200.078857 1126.0 
200.104828 350.0 
200.354599 156.0 
204.138123 184.0 
209.061737 463.0 
212.045334 3695.0 
213.05394 416.0 
215.196915 254.0 
225.890945 241.0 
226.056 121.0 
226.258163 105.0 
226.510132 132.0 
226.763489 234.0 
226.900299 314.0 
227.070648 188249.0 
227.19902 110.0 
227.241074 177.0 
227.315887 358.0 
227.380524 121.0 
227.571259 261.0 
227.778961 103.0 
227.817001 122.0 
227.99144 128.0 
228.074219 23650.0 
228.251953 213.0 
228.684753 188.0 
229.074905 751.0 
229.154114 94.0 
229.662537 169.0 
229.789291 113.0 
229.958282 170.0 
230.39624 91.0 
230.429276 120.0 
230.790054 123.0 
230.961761 140.0 
327.126617 1406.0 
426.30304 187.0 
443.332001 541.0 
1005.609009 97.0 
1585.612793 194.0 
1637.612915 77.0 
END IONS

BEGIN IONS
TITLE=Scan Number: 282
PEPMASS=449.15701
CHARGE=1+
MSLEVEL=2
FILENAME=E12_GE12_01_2820.mzXML
INSTRUMENT=ion trap
SCANS=282
SMILES=C\C=C(\C)C(=O)OC1C(OC2=CC=C3C=CC(=O)OC3=C12)C(C)(C)OC(=O)C=C(C)C
INCHIKEY=XAQHSTCVGOTLHK-AUWJEWJLSA-N
119.048096 191.0 
128.06781 180.0 
131.046631 161.0 
143.080154 662.0 
153.071625 153.0 
155.06102 160.0 
159.046997 304.0 
159.083862 120.0 
171.083817 281.0 
184.042801 162.0 
187.040924 178.0 
199.042557 1055.0 
199.075821 801.0 
200.049423 390.0 
200.083023 194.0 
201.958298 135.0 
212.050156 121.0 
226.484116 382.0 
227.071991 7261.0 
228.072052 540.0 
249.051208 1157.0 
250.034515 352.0 
267.009979 467.0 
267.064667 535.0 
284.049988 112.0 
348.328918 94.0 
349.121796 310.0 
392.967255 158.0 
END IONS

BEGIN IONS
TITLE=Scan Number: 283
PEPMASS=298.16501
CHARGE=1+
MSLEVEL=2
FILENAME=C10_RC10_01_2932.mzXML
INSTRUMENT=ion trap
SCANS=283
SMILES=CCCCCCC1=C(C)C(=O)N(C(C(C)O)C(O)=O)C1=O
INCHIKEY=PDIJXNGNSUILEE-UHFFFAOYSA-N
70.078026 255.0 
75.0541 168.0 
78.027428 195.0 
79.053345 515.0 
80.146538 103.0 
81.013222 120.0 
81.031921 403.0 
81.068542 3135.0 
82.027466 1045.0 
82.064079 150.0 
83.050194 283.0 
83.266342 128.0 
84.044083 664.0 
84.078911 207.0 
86.55114 181.0 
91.055092 493.0 
93.055458 419.0 
93.069176 551.0 
94.026245 484.0 
94.063934 1147.0 
95.049515 846.0 
96.043365 1001.0 
96.091873 186.0 
97.051239 656.0 
98.060516 467.0 
98.454071 128.0 
105.035316 820.0 
105.06945 1042.0 
106.066719 711.0 
107.071846 303.0 
107.091522 272.0 
107.111633 310.0 
108.045509 174.0 
108.079407 2230.0 
109.06604 508.0 
109.087334 547.0 
109.774437 103.0 
110.019409 281.0 
110.060593 2217.0 
110.777382 127.0 
111.068138 167.0 
112.039017 996.0 
113.75206 77.0 
117.069992 178.0 
118.064407 506.0 
120.079788 626.0 
121.026939 220.0 
121.080368 107.0 
121.10228 195.0 
122.05941 1649.0 
122.09404 114.0 
123.038727 838.0 
123.065781 672.0 
123.114586 862.0 
124.046921 242.0 
124.073547 741.0 
124.117691 103.0 
125.057762 199.0 
125.893822 72.0 
126.053909 558.0 
126.127968 240.0 
127.057564 462.0 
130.062943 120.0 
131.080368 399.0 
132.082123 168.0 
133.099808 202.0 
133.664322 65.0 
134.049149 459.0 
134.097534 300.0 
135.045822 97.0 
135.103165 348.0 
136.076111 8621.0 
136.110794 139.0 
137.082687 1735.0 
137.132294 135.0 
137.629745 100.0 
138.034714 168.0 
138.056549 749.0 
138.089981 485.0 
138.944962 250.0 
139.062759 227.0 
139.087341 246.0 
139.573135 278.0 
140.068619 532.0 
146.337997 289.0 
147.050049 181.0 
147.079742 347.0 
148.075058 3975.0 
148.112381 178.0 
149.080154 179.0 
149.103073 241.0 
150.056061 2440.0 
150.091309 1802.0 
150.466202 263.0 
151.099487 431.0 
152.069595 677.0 
154.087769 136.0 
158.101974 241.0 
158.476898 297.0 
159.061478 175.0 
161.006851 199.0 
162.091095 918.0 
163.056046 838.0 
163.086044 194.0 
164.070267 903.0 
164.10585 335.0 
164.144119 381.0 
164.310837 154.0 
165.052948 174.0 
165.073166 394.0 
166.085007 373.0 
166.123947 147.0 
168.104782 184.0 
173.111237 146.0 
175.145187 231.0 
176.110367 453.0 
176.594193 191.0 
177.090164 223.0 
177.117462 345.0 
178.084854 744.0 
178.122528 513.0 
179.08429 162.0 
180.065369 158.0 
180.137848 334.0 
181.089569 65.0 
182.08342 1001.0 
188.134048 138.0 
192.059616 158.0 
192.101395 170.0 
192.137497 265.0 
196.103363 341.0 
196.13414 1452.0 
197.144379 244.0 
199.110397 171.0 
205.850967 89.0 
206.153473 2947.0 
207.158173 77.0 
208.131775 3981.0 
209.124084 321.0 
210.150375 6226.0 
210.368576 106.0 
211.145233 475.0 
214.845886 204.0 
216.139252 468.0 
222.129868 176.0 
222.152832 398.0 
224.127502 364.0 
224.161484 168.0 
234.148376 36372.0 
234.539139 101.0 
234.638153 90.0 
234.688644 137.0 
235.152191 4079.0 
236.162903 1865.0 
236.768234 145.0 
236.868942 98.0 
237.161545 911.0 
238.475342 85.0 
241.15126 180.0 
252.15947 25209.0 
252.224579 401.0 
253.162796 3172.0 
253.6642 80.0 
262.141479 1751.0 
263.122711 134.0 
270.118195 93.0 
270.473114 92.0 
280.1492 497.0 
298.158875 384.0 
629.10675 61.0 
1672.649536 149.0 
1680.866577 192.0 
1758.381348 201.0 
1800.119141 293.0 
1874.320312 229.0 
1879.346436 255.0 
1938.095581 273.0 
END IONS

BEGIN IONS
TITLE=Scan Number: 284
PEPMASS=315.19199
CHARGE=1+
MSLEVEL=2
FILENAME=C10_RC10_01_2932.mzXML
INSTRUMENT=ion trap
SCANS=284
SMILES=CCCCCCC1=C(C)C(=O)N(C(C(C)O)C(O)=O)C1=O
INCHIKEY=PDIJXNGNSUILEE-UHFFFAOYSA-N
79.05217 294.0 
81.034248 206.0 
81.066895 791.0 
81.106728 89.0 
82.02903 186.0 
82.065781 183.0 
84.046455 216.0 
84.07988 195.0 
91.054153 596.0 
94.026764 191.0 
94.061798 251.0 
95.051071 179.0 
96.04451 345.0 
97.041313 194.0 
100.037224 233.0 
105.066681 145.0 
107.071709 602.0 
108.041985 237.0 
108.08049 1103.0 
109.065224 168.0 
110.059319 1093.0 
111.076958 188.0 
112.068604 218.0 
118.060989 161.0 
121.065056 158.0 
122.061096 496.0 
122.0961 316.0 
123.118294 463.0 
124.056854 156.0 
125.040733 228.0 
126.054039 375.0 
126.124649 132.0 
130.327454 269.0 
133.098892 156.0 
134.044846 107.0 
134.092422 342.0 
135.067596 174.0 
136.075317 4978.0 
136.111542 107.0 
137.08252 602.0 
138.057831 297.0 
138.09137 379.0 
139.059326 379.0 
140.068893 313.0 
148.074631 1305.0 
149.07991 768.0 
150.052734 588.0 
150.090515 448.0 
151.112717 1315.0 
152.070801 103.0 
152.111923 176.0 
153.081787 183.0 
154.06662 143.0 
160.114059 186.0 
163.068054 370.0 
164.069611 811.0 
164.109329 340.0 
166.063889 154.0 
176.113953 253.0 
179.102448 294.0 
180.103577 369.0 
182.080963 299.0 
189.08493 164.0 
192.099792 139.0 
195.557297 119.0 
196.13147 1190.0 
196.169815 264.0 
206.151306 1789.0 
208.130936 2030.0 
210.097107 204.0 
210.150757 4228.0 
211.126877 192.0 
211.154175 301.0 
212.158829 113.0 
212.418472 82.0 
218.101227 126.0 
219.106674 143.0 
220.174011 111.0 
224.106415 261.0 
232.114532 99.0 
233.277237 91.0 
234.148926 17098.0 
234.195114 164.0 
235.150772 2129.0 
236.133759 90.0 
236.164459 1177.0 
250.955795 177.0 
251.624741 152.0 
252.159363 13602.0 
253.163788 2171.0 
262.146973 981.0 
263.147705 304.0 
267.119171 132.0 
280.154205 3145.0 
297.120789 129.0 
297.178314 319.0 
298.165985 528.0 
END IONS

BEGIN IONS
TITLE=Scan Number: 287
PEPMASS=299.12701
CHARGE=1+
MSLEVEL=2
FILENAME=C10_RC10_01_2932.mzXML
INSTRUMENT=ion trap
SCANS=287
SMILES=COC1=CC=C(C=C1)C(OC(=O)C2=CC=C(OC)C=C2)C(C)O
INCHIKEY=PCUOEOPTDCUNQQ-UHFFFAOYSA-N
76.596985 367.0 
77.040848 971.0 
79.054031 804.0 
80.056198 553.0 
80.765083 171.0 
81.069099 175.0 
83.077698 220.0 
91.05571 1026.0 
92.026169 4585.0 
92.058502 228.0 
93.070244 274.0 
95.049973 3140.0 
96.052696 530.0 
96.758514 99.0 
97.924507 138.0 
98.042763 200.0 
98.743668 292.0 
103.057518 321.0 
104.060699 151.0 
105.011909 293.0 
105.045334 11874.0 
106.045334 1345.0 
106.987877 144.0 
107.048698 531.0 
108.081207 266.0 
109.065788 233.0 
109.099281 82.0 
115.054176 1025.0 
117.07798 323.0 
118.077614 204.0 
118.436104 302.0 
119.082092 143.0 
121.063782 86.0 
121.097 96.0 
125.061432 3708.0 
128.064331 449.0 
129.066132 430.0 
131.051651 694.0 
132.056091 526.0 
133.060715 302.0 
133.101959 201.0 
134.725815 207.0 
135.005219 407.0 
135.045227 85723.0 
135.11702 195.0 
135.383179 257.0 
135.609619 134.0 
136.048737 6660.0 
136.680069 120.0 
137.05925 112.0 
137.158386 88.0 
137.18663 119.0 
137.24147 127.0 
145.093079 169.0 
147.081268 795.0 
149.135391 100.0 
160.998581 160.0 
161.100815 134.0 
173.100052 156.0 
180.098587 111.0 
182.078934 226.0 
208.136597 515.0 
222.202072 246.0 
224.075226 86.0 
225.088409 224.0 
235.154755 469.0 
253.167557 439.0 
255.139771 299.0 
1114.072632 338.0 
1680.885864 178.0 
END IONS

BEGIN IONS
TITLE=Scan Number: 289
PEPMASS=806.14099
CHARGE=1+
MSLEVEL=2
FILENAME=C10_RC10_01_2932.mzXML
INSTRUMENT=ion trap
SCANS=289
SMILES=O[C@H]1[C@H](OC(=O)C2=CC(O)=C(O)C(O)=C2)[C@@H](COC(=O)C3=CC(O)=C(O)C(O)=C3)O[C@@H](OC(=O)C4=CC(O)=C(O)C(O)=C4)[C@@H]1OC(=O)C5=CC(O)=C(O)C(O)=C5
INCHIKEY=YXZYFHXWEOAXLF-UGAZNADUSA-N
79.017151 387.0 
86.026703 142.0 
89.787994 111.0 
91.292747 227.0 
97.029541 267.0 
107.009911 156.0 
108.047386 488.0 
109.029449 1224.0 
110.031647 224.0 
112.160492 157.0 
117.850792 187.0 
119.085548 385.0 
122.05867 153.0 
125.021805 470.0 
127.03904 982.0 
128.042862 160.0 
143.034653 2059.0 
152.018204 200.0 
152.176376 95.0 
152.964188 328.0 
153.017899 139224.0 
153.097412 517.0 
153.171219 99.0 
153.278992 134.0 
153.463913 189.0 
154.021332 9997.0 
154.582779 75.0 
154.961609 111.0 
155.023666 359.0 
155.297867 133.0 
155.319519 108.0 
156.027145 216.0 
163.040314 135.0 
165.192673 85.0 
167.604065 134.0 
171.030853 348.0 
177.053238 176.0 
177.582138 303.0 
181.014252 335.0 
191.03685 188.0 
196.036087 186.0 
205.048752 532.0 
206.053452 142.0 
207.027176 288.0 
209.041931 110.0 
215.03244 280.0 
217.052444 134.0 
218.050034 120.0 
219.029831 91.0 
224.01178 245.0 
233.040375 1185.0 
234.043045 81.0 
237.037476 295.0 
245.000748 207.0 
251.042755 110.0 
261.035889 1517.0 
262.010986 158.0 
262.04657 101.0 
278.12439 95.0 
278.189636 82.0 
279.049103 3656.0 
279.095245 160.0 
280.05661 331.0 
297.05896 312.0 
298.059723 183.0 
305.030273 904.0 
306.031738 440.0 
314.056824 267.0 
324.923096 188.0 
330.219513 141.0 
360.978668 143.0 
371.024536 150.0 
413.376495 189.0 
431.064453 715.0 
447.130707 211.0 
448.982452 95.0 
449.071106 6958.0 
450.073273 628.0 
451.072754 295.0 
467.083313 908.0 
468.106903 133.0 
469.004944 104.0 
572.577942 158.0 
596.076477 153.0 
601.095703 144.0 
616.87146 99.0 
617.163269 132.0 
618.799072 232.0 
619.091125 19375.0 
619.217102 113.0 
619.902466 149.0 
619.983765 125.0 
620.020264 219.0 
620.093201 3687.0 
621.096985 1079.0 
621.554932 101.0 
624.706177 110.0 
657.046936 151.0 
771.108459 159.0 
1502.189453 146.0 
1553.833496 260.0 
END IONS

BEGIN IONS
TITLE=Scan Number: 290
PEPMASS=267.12201
CHARGE=1+
MSLEVEL=2
FILENAME=A4_BA4_01_2836.mzXML
INSTRUMENT=ion trap
SCANS=290
SMILES=COC1=C(C)C(=O)OC(=C1)C(\C)=C\C(C)CC(O)=O
INCHIKEY=MPAYQRIVOSEDQH-WEVVVXLNSA-N
70.032684 138.0 
74.141548 256.0 
77.038544 360.0 
78.033051 147.0 
79.016945 153.0 
79.054527 1225.0 
79.826256 193.0 
80.059608 397.0 
81.006638 252.0 
81.069374 662.0 
81.759392 66.0 
82.789413 102.0 
83.0131 657.0 
83.048889 2042.0 
84.053978 255.0 
84.448799 191.0 
85.044945 199.0 
85.064117 1411.0 
85.786537 266.0 
85.949226 254.0 
89.979324 105.0 
90.923218 150.0 
91.053612 6229.0 
92.057785 423.0 
93.069061 964.0 
94.078743 266.0 
94.872253 151.0 
95.012009 345.0 
95.048141 621.0 
96.019836 137.0 
96.058174 300.0 
97.838081 179.0 
99.043304 447.0 
101.584625 126.0 
102.186821 320.0 
103.053703 2806.0 
104.062408 391.0 
104.968872 87.0 
105.015739 185.0 
105.045013 2730.0 
105.069817 6873.0 
105.128601 100.0 
105.386436 144.0 
106.072571 542.0 
107.050819 1531.0 
107.084618 755.0 
107.288368 136.0 
108.055603 503.0 
108.09716 169.0 
109.044083 214.0 
109.063988 2472.0 
110.064697 338.0 
111.044693 160.0 
111.08165 525.0 
112.050728 233.0 
113.059013 743.0 
115.053932 2485.0 
116.061195 1171.0 
117.006691 187.0 
117.06871 3591.0 
118.074692 351.0 
119.030342 461.0 
119.048828 1465.0 
119.08567 9636.0 
120.055595 134.0 
120.088837 1189.0 
120.562546 232.0 
121.064804 2715.0 
122.071175 1852.0 
122.104729 160.0 
122.572281 303.0 
123.043022 328.0 
123.078514 1287.0 
124.053268 210.0 
124.086533 557.0 
125.056152 727.0 
126.065254 181.0 
127.038368 172.0 
127.074226 650.0 
128.060593 2825.0 
129.039795 283.0 
129.068344 1953.0 
129.996185 240.0 
130.07692 2099.0 
131.05098 469.0 
131.085037 2814.0 
132.055191 1029.0 
132.088516 627.0 
133.065094 2509.0 
133.101227 2219.0 
133.713104 140.0 
134.063843 144.0 
135.040207 175.0 
135.080765 1209.0 
136.061493 151.0 
136.087646 3248.0 
137.058167 1110.0 
137.095032 9849.0 
138.066101 343.0 
138.097717 154.0 
139.037659 4050.0 
139.076019 1547.0 
139.272263 140.0 
140.044144 158.0 
140.086273 181.0 
140.693298 215.0 
141.069717 538.0 
143.029297 203.0 
143.053604 454.0 
143.084442 548.0 
145.064362 1641.0 
145.101669 2120.0 
146.06955 980.0 
146.121582 80.0 
147.043106 750.0 
147.079803 20150.0 
147.243332 137.0 
148.086243 2182.0 
148.997589 128.0 
149.060898 919.0 
149.095978 1190.0 
150.067993 660.0 
150.103134 127.0 
150.790253 200.0 
151.070953 448.0 
151.110657 6407.0 
152.081543 794.0 
152.11412 224.0 
152.200256 165.0 
152.270477 83.0 
153.051743 145.0 
153.08783 136.0 
154.061371 1085.0 
155.064072 1331.0 
157.065613 562.0 
157.105606 134.0 
158.072739 168.0 
159.027466 130.0 
159.078827 798.0 
160.09874 359.0 
161.060806 655.0 
161.094955 3182.0 
162.069778 142.0 
162.102036 699.0 
163.074097 1005.0 
163.11261 1694.0 
163.17749 106.0 
163.24057 123.0 
163.687836 135.0 
164.065308 296.0 
165.053284 130.0 
165.090515 21063.0 
165.133499 170.0 
166.093063 1844.0 
167.071594 1109.0 
167.104752 166.0 
167.39328 177.0 
167.519394 138.0 
167.966751 157.0 
168.075806 1026.0 
168.193207 270.0 
168.361801 275.0 
169.082001 237.0 
170.070068 182.0 
171.079437 621.0 
172.084549 175.0 
172.294968 352.0 
173.055161 231.0 
173.096237 1418.0 
173.803284 104.0 
174.068832 391.0 
174.104309 159.0 
175.035034 192.0 
175.07547 6383.0 
175.114563 724.0 
175.147385 153.0 
175.245483 157.0 
175.410461 182.0 
176.079269 1646.0 
177.055542 92.0 
177.089218 1248.0 
177.125412 2151.0 
177.4366 72.0 
178.054688 268.0 
178.093063 380.0 
179.069946 175.0 
179.106461 5082.0 
180.112854 1306.0 
180.712326 229.0 
181.083282 2493.0 
181.116821 257.0 
182.085083 125.0 
187.111771 556.0 
189.093643 2454.0 
190.097015 2848.0 
190.374329 327.0 
191.070541 319.0 
192.083359 372.0 
193.08522 2798.0 
193.121017 3769.0 
194.092407 514.0 
194.119934 147.0 
197.116074 134.0 
203.102859 553.0 
205.122314 13761.0 
206.12381 909.0 
206.36264 76.0 
206.685944 119.0 
206.713562 106.0 
206.897003 205.0 
207.101028 63658.0 
207.218521 114.0 
207.399612 92.0 
207.554382 87.0 
207.873047 111.0 
208.106049 7531.0 
208.386688 149.0 
209.105835 236.0 
209.638794 77.0 
209.708542 143.0 
210.813873 118.0 
217.085495 85.0 
218.56929 245.0 
220.121094 74.0 
220.979462 189.0 
221.11702 5955.0 
222.121872 131.0 
225.108994 162.0 
228.828323 94.0 
235.095581 161.0 
239.128738 653.0 
249.112717 2117.0 
250.116592 170.0 
265.673859 253.0 
267.121674 12622.0 
268.125732 1514.0 
270.716431 116.0 
299.148926 119.0 
426.053894 100.0 
591.212769 99.0 
1471.263916 360.0 
1731.736572 256.0 
1742.053101 134.0 
1780.70105 105.0 
1832.427734 133.0 
1840.800537 249.0 
1865.296143 221.0 
1887.147217 269.0 
1912.178833 252.0 
END IONS

BEGIN IONS
TITLE=Scan Number: 291
PEPMASS=284.14899
CHARGE=1+
MSLEVEL=2
FILENAME=A4_BA4_01_2836.mzXML
INSTRUMENT=ion trap
SCANS=291
SMILES=COC1=C(C)C(=O)OC(=C1)C(\C)=C\C(C)CC(O)=O
INCHIKEY=MPAYQRIVOSEDQH-WEVVVXLNSA-N
70.097382 317.0 
81.06665 114.0 
83.050476 683.0 
85.065514 120.0 
91.050713 121.0 
97.097855 235.0 
100.044968 181.0 
103.052101 355.0 
104.060081 162.0 
105.043831 279.0 
105.069489 981.0 
107.047684 255.0 
107.083771 216.0 
110.072998 212.0 
111.081116 404.0 
112.050705 221.0 
113.543434 257.0 
115.050117 283.0 
117.071129 396.0 
118.073631 196.0 
119.08725 1487.0 
120.090408 153.0 
122.068649 462.0 
123.081482 277.0 
123.959465 120.0 
124.089348 124.0 
127.145287 130.0 
128.061325 628.0 
129.073212 198.0 
130.068695 98.0 
131.086044 164.0 
133.06456 870.0 
133.106094 613.0 
135.044937 123.0 
135.078323 323.0 
136.086578 193.0 
137.061127 604.0 
137.096924 478.0 
138.096802 430.0 
139.039017 457.0 
140.076675 469.0 
143.050385 159.0 
143.081329 289.0 
145.187546 293.0 
146.068909 326.0 
146.729721 246.0 
147.0392 114.0 
147.080002 2708.0 
148.083557 539.0 
151.107239 349.0 
152.089828 212.0 
153.092163 495.0 
155.046646 169.0 
160.375534 85.0 
161.057419 299.0 
162.103027 459.0 
163.110123 321.0 
165.046677 115.0 
165.088821 1945.0 
166.092331 443.0 
167.069901 122.0 
174.102585 154.0 
175.074646 805.0 
176.079788 167.0 
177.094177 151.0 
177.92244 119.0 
179.103729 267.0 
181.083908 560.0 
182.086777 167.0 
190.092133 270.0 
191.10434 259.0 
193.085083 447.0 
193.121979 447.0 
205.119476 2389.0 
206.123215 573.0 
207.101471 7325.0 
207.851654 100.0 
208.106674 1147.0 
208.17836 167.0 
221.117859 1144.0 
238.083679 121.0 
267.051941 179.0 
267.122284 5404.0 
268.124664 353.0 
282.030884 98.0 
284.14267 99.0 
1957.974609 233.0 
END IONS

BEGIN IONS
TITLE=Scan Number: 292
PEPMASS=346.186
CHARGE=1+
MSLEVEL=2
FILENAME=A4_BA4_01_2836.mzXML
INSTRUMENT=ion trap
SCANS=292
SMILES=CC1(C)C2CCC1(C)C(C2)OC(=O)CC(O)(CC(O)=O)C(O)=O
INCHIKEY=RZILTIPWCHNOKU-UHFFFAOYSA-N
77.000389 136.0 
79.053902 1269.0 
80.987961 233.0 
81.069298 15657.0 
82.071945 1202.0 
91.052887 200.0 
95.085541 4790.0 
96.089653 670.0 
97.392159 176.0 
109.097588 156.0 
111.008156 435.0 
129.016953 583.0 
137.132172 15479.0 
138.136139 924.0 
139.001465 517.0 
140.003281 189.0 
147.031357 521.0 
157.012497 560.0 
157.09996 123.0 
175.026688 703.0 
193.032761 338.0 
207.966415 168.0 
268.113617 224.0 
1460.460205 234.0 
1544.646362 225.0 
1898.986938 191.0 
END IONS

BEGIN IONS
TITLE=Scan Number: 293
PEPMASS=397.14899
CHARGE=1+
MSLEVEL=2
FILENAME=A4_BA4_01_2836.mzXML
INSTRUMENT=ion trap
SCANS=293
SMILES=CC(C)CC1=CC(=O)C2=C(O)C=C(O)C([C@@H]3O[C@H](CO)[C@@H](O)[C@H](O)[C@H]3O)=C2O1
INCHIKEY=NZMMULPLBZWYSX-ZIIYPAMZSA-N
71.770485 99.0 
73.028244 282.0 
75.246269 185.0 
77.96434 307.0 
78.896721 152.0 
79.017593 1278.0 
80.252205 231.0 
80.490158 139.0 
81.033089 1381.0 
81.057137 246.0 
81.069229 575.0 
82.271721 299.0 
84.174896 248.0 
85.027649 577.0 
85.063492 240.0 
85.562195 179.0 
86.576408 377.0 
86.911453 148.0 
87.141975 65.0 
87.389572 309.0 
88.111526 156.0 
91.052269 172.0 
92.74057 185.0 
94.040359 238.0 
95.024719 112.0 
97.032028 322.0 
97.067001 173.0 
97.370422 150.0 
97.780251 208.0 
99.239563 134.0 
99.8563 70.0 
101.212112 252.0 
102.336418 147.0 
103.69239 123.0 
105.028419 198.0 
105.068192 415.0 
105.734863 282.0 
106.506882 195.0 
106.978462 306.0 
107.013344 1015.0 
107.052345 184.0 
107.078247 170.0 
107.448456 187.0 
108.021873 158.0 
109.028954 1657.0 
109.064964 521.0 
109.159897 66.0 
113.894356 128.0 
115.83091 346.0 
119.048553 350.0 
119.085884 132.0 
119.612503 193.0 
120.731216 220.0 
121.026909 416.0 
121.063713 439.0 
122.033493 200.0 
122.748299 238.0 
123.005898 153.0 
125.024658 618.0 
125.072845 239.0 
126.027161 152.0 
127.443245 359.0 
128.06073 164.0 
128.083908 183.0 
128.709747 180.0 
129.068527 415.0 
129.838852 145.0 
130.033951 279.0 
131.047867 186.0 
131.241135 193.0 
131.842651 218.0 
132.05748 173.0 
132.894714 263.0 
133.065765 639.0 
133.252075 179.0 
134.753723 238.0 
135.043259 451.0 
135.449799 186.0 
136.055115 234.0 
136.074554 238.0 
137.022217 218.0 
137.058182 798.0 
138.177094 131.0 
138.596985 108.0 
139.037094 108.0 
140.720978 192.0 
141.014648 139.0 
142.577316 214.0 
143.035202 591.0 
144.795547 271.0 
144.86412 88.0 
145.029297 122.0 
145.87413 255.0 
146.036896 241.0 
146.16423 224.0 
146.234955 189.0 
147.042847 1439.0 
148.049881 614.0 
149.022141 292.0 
149.052719 510.0 
149.337143 78.0 
150.067001 556.0 
151.038788 1387.0 
151.081329 184.0 
151.484619 183.0 
152.0401 166.0 
152.064606 149.0 
153.019104 1408.0 
153.418427 318.0 
154.015656 92.0 
154.408371 221.0 
154.683105 284.0 
154.715912 126.0 
154.876556 150.0 
155.029694 179.0 
155.064438 212.0 
155.267517 297.0 
157.026138 142.0 
157.063538 478.0 
158.550919 187.0 
159.050995 433.0 
159.080658 162.0 
159.244308 108.0 
159.846802 248.0 
160.054581 747.0 
160.677002 148.0 
161.058792 2959.0 
162.026886 596.0 
162.063339 865.0 
162.098038 192.0 
162.14389 111.0 
163.037979 2666.0 
163.751724 185.0 
164.041946 769.0 
165.017471 5326.0 
165.053848 3099.0 
166.017593 65.0 
166.058029 421.0 
166.099594 324.0 
167.032669 4336.0 
167.655533 202.0 
168.027237 243.0 
168.060349 151.0 
168.171738 240.0 
168.487549 164.0 
168.874573 72.0 
168.979416 156.0 
169.027344 128.0 
169.08638 303.0 
169.289352 167.0 
170.011887 165.0 
170.072418 212.0 
171.029129 1022.0 
171.079544 431.0 
171.259369 99.0 
171.761551 270.0 
172.66452 127.0 
173.020569 110.0 
173.056396 372.0 
174.471359 87.0 
175.039841 866.0 
175.081207 353.0 
175.115799 176.0 
175.797562 174.0 
176.046524 725.0 
176.083038 160.0 
176.104553 300.0 
177.011841 864.0 
177.055069 3132.0 
177.09407 230.0 
178.017914 55.0 
178.061584 1078.0 
178.825409 118.0 
178.864807 257.0 
179.029541 165.0 
179.071899 531.0 
180.022644 114.0 
180.043823 254.0 
180.164688 76.0 
180.476105 193.0 
180.811295 77.0 
180.990387 226.0 
181.009491 348.0 
181.052185 1405.0 
183.029083 892.0 
183.505814 116.0 
184.041412 289.0 
184.390518 203.0 
185.05986 617.0 
185.114746 100.0 
186.19664 182.0 
186.812271 293.0 
187.030487 364.0 
187.071182 223.0 
188.045135 963.0 
189.012527 714.0 
189.054443 2529.0 
189.091278 339.0 
190.021484 154.0 
190.064728 388.0 
191.033325 1757.0 
191.106598 1961.0 
192.041565 2628.0 
192.089493 149.0 
192.115509 821.0 
193.04599 3518.0 
193.236938 144.0 
193.629547 105.0 
194.055923 139.0 
194.32457 205.0 
194.37738 218.0 
194.500015 112.0 
194.980957 174.0 
195.028351 2109.0 
196.028778 217.0 
196.067978 533.0 
196.928391 113.0 
197.063583 134.0 
199.038055 296.0 
199.063858 451.0 
199.642776 63.0 
200.044067 666.0 
200.600708 292.0 
200.699173 177.0 
200.946869 198.0 
201.014771 271.0 
201.058456 603.0 
201.832245 304.0 
202.060806 655.0 
202.412949 73.0 
202.791855 277.0 
203.034683 200.0 
203.069321 1195.0 
203.111893 248.0 
203.225586 84.0 
203.403091 77.0 
203.969147 175.0 
204.042709 9478.0 
204.279083 117.0 
204.572006 68.0 
204.598801 197.0 
204.848145 240.0 
204.954636 108.0 
205.018356 2835.0 
205.049576 47417.0 
205.085068 1512.0 
205.287079 125.0 
205.447845 74.0 
205.594254 82.0 
205.661377 487.0 
205.855484 76.0 
205.8853 234.0 
205.909439 142.0 
205.936981 102.0 
206.05661 86780.0 
206.093521 1068.0 
206.125687 591.0 
206.195129 75.0 
206.270844 63.0 
206.405396 55.0 
206.560791 103.0 
206.8013 235.0 
206.833313 228.0 
206.950073 157.0 
206.998047 273.0 
207.060867 12335.0 
207.102325 4649.0 
207.197357 304.0 
207.618652 173.0 
207.66803 110.0 
207.813019 81.0 
208.062973 507.0 
208.106049 1040.0 
208.164886 113.0 
208.194626 160.0 
208.264816 55.0 
208.576279 187.0 
208.612473 127.0 
208.880264 136.0 
209.107071 205.0 
209.530548 331.0 
209.683136 106.0 
210.789505 208.0 
211.037369 297.0 
211.059204 1007.0 
211.501282 302.0 
211.85289 191.0 
212.059601 329.0 
213.05455 865.0 
213.088348 215.0 
213.962189 172.0 
214.052628 105.0 
214.976868 129.0 
215.030289 616.0 
215.071976 633.0 
215.165634 317.0 
215.652496 68.0 
216.041534 3018.0 
217.01683 295.0 
217.048767 8684.0 
217.082275 286.0 
218.023193 425.0 
218.05571 8249.0 
218.523865 215.0 
218.691589 294.0 
218.836273 122.0 
219.029068 1597.0 
219.06366 9786.0 
219.101791 2502.0 
219.147903 101.0 
219.200562 119.0 
219.259308 58.0 
219.393723 71.0 
219.481888 68.0 
219.539612 121.0 
219.656662 57.0 
219.740768 109.0 
220.030853 427.0 
220.073975 2011.0 
220.109161 3644.0 
220.679504 66.0 
221.042786 2536.0 
221.11441 1042.0 
221.503082 103.0 
222.046097 171.0 
222.605927 207.0 
223.024475 204.0 
223.094971 3621.0 
224.099487 1066.0 
225.054916 264.0 
225.69075 74.0 
226.068634 160.0 
227.021835 111.0 
227.057831 225.0 
228.042648 385.0 
228.068283 153.0 
228.818985 235.0 
228.927368 190.0 
229.047775 3796.0 
229.085709 394.0 
229.513336 232.0 
229.943771 198.0 
230.056488 4721.0 
230.096695 261.0 
230.130066 290.0 
230.234741 182.0 
230.259689 256.0 
230.509506 285.0 
230.628265 205.0 
230.910355 334.0 
230.997101 128.0 
231.029175 1336.0 
231.066177 3903.0 
231.09993 683.0 
231.29744 90.0 
231.385483 60.0 
232.068192 1549.0 
232.113617 377.0 
232.341614 205.0 
232.796432 86.0 
232.912964 212.0 
233.044189 1983.0 
233.082886 853.0 
233.115585 450.0 
233.52092 118.0 
233.680588 130.0 
234.020966 812.0 
234.051239 13814.0 
234.186676 54.0 
234.4776 196.0 
234.62915 179.0 
234.79274 169.0 
234.822739 324.0 
234.982834 114.0 
235.003357 126.0 
235.059387 37810.0 
235.096085 5896.0 
235.4104 61.0 
235.584274 77.0 
235.690643 72.0 
236.03833 496.0 
236.064453 3839.0 
236.098236 891.0 
236.240021 149.0 
237.026611 95.0 
237.073868 286.0 
237.830505 98.0 
238.044037 121.0 
239.17305 114.0 
239.836105 299.0 
240.363831 230.0 
241.049088 2521.0 
241.096848 156.0 
241.988861 117.0 
242.019669 172.0 
242.051041 228.0 
242.997681 259.0 
243.029495 2803.0 
243.066528 837.0 
243.106522 178.0 
243.656265 216.0 
243.978455 124.0 
244.029938 1767.0 
244.073547 3878.0 
244.863678 77.0 
245.045502 2391.0 
245.080139 4280.0 
245.117386 1309.0 
245.332886 230.0 
245.520538 114.0 
246.017502 347.0 
246.050888 2841.0 
246.142029 248.0 
246.388031 60.0 
246.498993 147.0 
246.613449 100.0 
246.808044 97.0 
246.909485 206.0 
247.001144 343.0 
247.096512 139192.0 
247.319092 554.0 
247.426102 188.0 
247.481277 229.0 
247.519806 104.0 
247.552917 154.0 
247.629181 67.0 
247.678665 52.0 
247.733566 307.0 
247.812927 102.0 
247.841736 163.0 
247.943237 258.0 
247.975571 160.0 
248.003052 162.0 
248.102478 55390.0 
248.518616 70.0 
248.923401 53.0 
249.037766 91.0 
249.108231 4931.0 
249.161972 82.0 
249.724487 123.0 
249.820938 104.0 
249.975327 214.0 
250.119904 248.0 
250.224625 78.0 
250.452576 88.0 
251.053009 117.0 
251.093735 235.0 
251.618774 73.0 
253.105865 625.0 
253.435104 265.0 
254.064651 676.0 
254.107742 145.0 
254.781509 266.0 
255.060165 306.0 
255.100662 299.0 
255.581314 177.0 
256.111725 121.0 
256.480103 168.0 
256.556671 105.0 
257.047729 682.0 
257.082886 452.0 
257.118652 605.0 
257.32489 127.0 
257.573517 143.0 
257.937256 165.0 
258.004181 152.0 
258.05307 1117.0 
258.084503 833.0 
258.122925 130.0 
258.756317 245.0 
258.848328 298.0 
258.982208 313.0 
259.014343 138.0 
259.059204 8878.0 
259.097626 19829.0 
259.646393 131.0 
259.795288 200.0 
259.982635 129.0 
260.025482 137.0 
260.059631 1504.0 
260.097137 2158.0 
260.417572 153.0 
260.527283 189.0 
260.572021 61.0 
261.042053 1742.0 
261.112366 42224.0 
261.311096 128.0 
261.439972 61.0 
261.601379 206.0 
261.76001 70.0 
261.85672 74.0 
261.90274 54.0 
262.056885 771.0 
262.082764 1103.0 
262.115784 7043.0 
262.228607 104.0 
262.381073 61.0 
262.625488 91.0 
262.793579 106.0 
263.0896 389.0 
263.713104 113.0 
264.056458 64.0 
264.09671 116.0 
264.897797 115.0 
267.120758 146.0 
269.045624 341.0 
269.118591 494.0 
270.123688 197.0 
270.791962 102.0 
270.967346 117.0 
271.062988 1509.0 
271.094727 1712.0 
272.073517 810.0 
272.104614 3909.0 
272.868774 124.0 
273.080414 1410.0 
273.109589 5650.0 
273.217957 139.0 
273.689911 125.0 
273.970123 112.0 
274.037842 133.0 
274.080017 710.0 
274.116699 842.0 
274.837494 87.0 
275.043854 461.0 
275.090088 8504.0 
275.12384 1135.0 
275.640381 239.0 
275.749847 76.0 
276.053986 180.0 
276.094177 1734.0 
276.131653 350.0 
276.204651 145.0 
276.639923 304.0 
276.790863 270.0 
276.845642 153.0 
276.889801 214.0 
276.92688 167.0 
276.955841 309.0 
277.019226 457.0 
277.107086 251128.0 
277.189514 136.0 
277.209808 217.0 
277.290527 385.0 
277.368439 185.0 
277.587311 198.0 
277.663574 155.0 
277.799286 69.0 
277.827148 133.0 
277.960876 242.0 
278.060913 769.0 
278.110321 32685.0 
278.478394 224.0 
278.688354 88.0 
278.723969 78.0 
278.813568 100.0 
279.042725 195.0 
279.112061 505.0 
279.217865 87.0 
279.547943 113.0 
279.730377 87.0 
279.848816 54.0 
280.041412 190.0 
280.085754 827.0 
280.124939 80.0 
280.299194 91.0 
281.024139 218.0 
281.10849 227.0 
281.960938 150.0 
282.192535 56.0 
283.062286 800.0 
283.093597 274.0 
283.129364 153.0 
283.325165 102.0 
284.085022 403.0 
284.35968 109.0 
285.040833 176.0 
285.111725 1502.0 
286.072205 166.0 
286.120422 554.0 
286.237579 71.0 
287.028992 222.0 
287.096222 4666.0 
287.127502 24065.0 
287.270416 85.0 
287.848297 121.0 
287.872528 171.0 
288.095642 1045.0 
288.132294 3412.0 
289.045013 610.0 
289.108887 11286.0 
289.203156 80.0 
289.315735 113.0 
290.112854 1610.0 
291.121338 4371.0 
291.985718 127.0 
292.12738 1333.0 
292.620514 306.0 
293.099182 192.0 
293.163513 129.0 
293.889252 69.0 
295.789093 135.0 
297.111847 896.0 
298.071289 315.0 
298.123413 154.0 
299.0914 684.0 
299.130615 78.0 
300.058868 272.0 
300.097473 754.0 
300.541138 120.0 
300.905029 103.0 
300.955963 252.0 
301.106903 36606.0 
301.620941 65.0 
301.797241 141.0 
302.113281 5797.0 
302.281647 91.0 
302.444916 260.0 
303.09024 152.0 
303.126434 692.0 
303.242401 59.0 
303.292358 83.0 
304.328094 77.0 
305.101501 1409.0 
306.105774 1108.0 
306.979614 258.0 
307.028656 207.0 
307.117767 17444.0 
308.042694 135.0 
308.123291 2969.0 
309.129089 172.0 
309.191803 101.0 
309.7901 135.0 
309.829651 147.0 
310.778015 132.0 
312.106964 100.0 
312.373596 302.0 
313.106415 3275.0 
314.114166 723.0 
314.737976 236.0 
314.992493 219.0 
315.061218 210.0 
315.123138 13040.0 
315.875061 59.0 
316.123474 1686.0 
317.101685 338.0 
317.127747 319.0 
318.110626 133.0 
319.074982 304.0 
319.115906 6224.0 
320.065308 200.0 
320.120697 411.0 
322.226654 288.0 
322.445801 113.0 
324.166077 348.0 
325.101685 1067.0 
326.108521 103.0 
329.705109 291.0 
330.11087 92.0 
330.547607 187.0 
330.903259 80.0 
331.028931 148.0 
331.062714 730.0 
331.117004 33543.0 
331.229889 144.0 
331.527191 88.0 
332.122131 4704.0 
333.134247 1872.0 
334.106384 208.0 
334.136047 510.0 
334.525482 93.0 
334.592041 170.0 
334.925598 169.0 
335.067017 114.0 
335.127625 321.0 
335.450256 63.0 
337.091095 152.0 
337.125732 269.0 
338.214325 212.0 
338.637939 150.0 
338.930542 77.0 
342.246155 176.0 
342.83783 122.0 
342.89325 161.0 
343.04129 297.0 
343.117706 27779.0 
343.694611 64.0 
343.896118 138.0 
343.995972 108.0 
344.120209 5130.0 
345.130768 181.0 
345.183777 53.0 
346.595978 174.0 
347.80954 159.0 
349.125244 292.0 
349.778656 76.0 
350.119934 249.0 
355.848175 183.0 
357.262482 279.0 
359.249756 53.0 
360.490753 73.0 
360.996033 156.0 
361.128387 86835.0 
361.216156 204.0 
361.322266 259.0 
361.724487 136.0 
361.914673 223.0 
362.133972 12584.0 
363.138123 490.0 
364.29834 114.0 
364.528809 206.0 
364.589722 149.0 
364.682526 297.0 
365.604034 84.0 
365.63205 88.0 
369.245422 84.0 
374.816681 99.0 
376.219116 53.0 
376.506989 96.0 
378.852112 114.0 
378.972076 65.0 
379.036835 266.0 
379.139862 85942.0 
379.421204 82.0 
380.141846 13426.0 
381.069641 331.0 
381.144226 654.0 
381.731781 82.0 
382.190735 76.0 
382.455872 125.0 
382.540436 102.0 
382.698761 145.0 
382.791229 54.0 
383.265015 52.0 
383.713287 119.0 
384.208038 246.0 
390.492218 106.0 
392.969757 137.0 
394.058533 150.0 
394.867249 239.0 
396.698151 111.0 
396.890167 121.0 
396.960938 157.0 
397.032257 332.0 
397.149445 121196.0 
397.245392 115.0 
397.391632 177.0 
397.648163 231.0 
397.760803 132.0 
397.784973 160.0 
398.074005 155.0 
398.15329 15997.0 
398.261444 162.0 
398.566895 55.0 
398.649292 68.0 
399.083344 103.0 
399.169586 438.0 
399.784149 207.0 
399.900146 60.0 
400.562622 164.0 
400.7164 165.0 
400.755219 143.0 
401.026764 55.0 
403.351471 95.0 
411.690308 81.0 
418.206879 65.0 
420.16507 132.0 
430.057983 178.0 
471.937744 140.0 
503.231781 94.0 
649.686523 57.0 
671.592285 95.0 
1053.84668 130.0 
1464.720825 77.0 
1500.573364 66.0 
1786.183716 320.0 
1862.58313 92.0 
END IONS

BEGIN IONS
TITLE=Scan Number: 294
PEPMASS=405.18201
CHARGE=1+
MSLEVEL=2
FILENAME=A4_BA4_01_2836.mzXML
INSTRUMENT=ion trap
SCANS=294
SMILES=C[C@@H]1CCC(=O)[C@H](C)[C@@]1(C)\C=C\C(C)=C\CC2=C(O)C(C=O)=C(C)C(Cl)=C2O
INCHIKEY=SETVRSKZJJWOPA-FLDGXQSCSA-N
79.051811 247.0 
81.070816 742.0 
83.012199 156.0 
97.075386 265.0 
97.101509 322.0 
105.029709 178.0 
105.052711 247.0 
107.048706 307.0 
108.089577 178.0 
113.098778 210.0 
125.096794 411.0 
133.094894 296.0 
138.100052 233.0 
143.027267 286.0 
147.381836 115.0 
149.054581 166.0 
151.086212 197.0 
155.023666 260.0 
163.106018 86.0 
165.056931 199.0 
166.082779 277.0 
169.037415 140.0 
170.009598 185.0 
171.020538 770.0 
175.134171 149.0 
175.469818 190.0 
179.042542 272.0 
180.986969 153.0 
181.004974 190.0 
196.998734 1991.0 
198.962875 235.0 
199.015121 16293.0 
200.019012 1962.0 
201.010117 1038.0 
201.455353 99.0 
202.019562 142.0 
207.164795 177.0 
209.006088 234.0 
212.95993 77.0 
214.992706 118.0 
215.035538 154.0 
216.015472 106.0 
223.019806 183.0 
235.037811 163.0 
239.046906 453.0 
251.050888 183.0 
253.062485 248.0 
265.057434 158.0 
267.058136 187.0 
267.081116 514.0 
281.055328 128.0 
281.096313 353.0 
286.737 194.0 
292.083099 155.0 
315.111786 162.0 
327.20813 151.0 
333.116608 75.0 
377.195892 252.0 
387.169128 181.0 
389.170654 111.0 
405.181915 278.0 
406.196472 139.0 
1753.507446 221.0 
1760.979736 92.0 
END IONS

BEGIN IONS
TITLE=Scan Number: 295
PEPMASS=422.20901
CHARGE=1+
MSLEVEL=2
FILENAME=A4_BA4_01_2836.mzXML
INSTRUMENT=ion trap
SCANS=295
SMILES=C[C@@H]1CCC(=O)[C@H](C)[C@@]1(C)\C=C\C(C)=C\CC2=C(O)C(C=O)=C(C)C(Cl)=C2O
INCHIKEY=SETVRSKZJJWOPA-FLDGXQSCSA-N
79.05378 346.0 
81.03112 219.0 
83.084938 212.0 
95.08609 263.0 
97.065033 465.0 
105.071327 177.0 
107.051598 164.0 
107.086472 261.0 
108.845085 114.0 
109.064018 126.0 
109.103516 554.0 
109.690758 175.0 
111.079987 223.0 
113.090996 139.0 
115.122498 250.0 
116.058189 194.0 
119.085182 512.0 
121.102943 957.0 
122.101677 104.0 
123.082687 425.0 
123.116524 504.0 
125.015701 322.0 
125.094872 443.0 
126.082397 215.0 
127.028313 232.0 
128.064651 231.0 
133.101288 206.0 
135.042023 390.0 
135.11557 561.0 
137.092407 148.0 
137.13176 167.0 
139.109573 260.0 
142.986526 211.0 
143.026489 1386.0 
143.082581 165.0 
144.089828 181.0 
145.007614 143.0 
145.099747 364.0 
146.900757 294.0 
147.121994 307.0 
148.050156 148.0 
148.120041 199.0 
149.096359 809.0 
150.07402 138.0 
150.104645 403.0 
151.11377 565.0 
151.150726 196.0 
155.023438 394.0 
155.569016 229.0 
156.089935 202.0 
157.006042 172.0 
157.83078 117.0 
158.109955 384.0 
160.090271 166.0 
160.117859 313.0 
164.043579 367.0 
164.435654 221.0 
167.340317 187.0 
169.005035 504.0 
171.019424 1644.0 
171.114212 228.0 
172.031174 323.0 
173.017548 544.0 
175.149811 280.0 
177.018768 136.0 
177.161957 174.0 
178.991348 186.0 
180.039688 140.0 
181.005386 907.0 
183.002548 839.0 
184.912903 222.0 
187.044617 188.0 
188.169937 346.0 
188.365036 194.0 
189.164154 383.0 
191.147141 298.0 
193.162567 203.0 
196.020782 123.0 
196.999573 13390.0 
197.291061 130.0 
198.002441 1231.0 
198.354813 143.0 
198.844833 229.0 
199.015305 82139.0 
199.927475 141.0 
200.019302 5422.0 
200.986145 625.0 
201.011856 6202.0 
201.165298 187.0 
201.632156 192.0 
201.705521 144.0 
201.84256 84.0 
206.160583 126.0 
207.174423 89.0 
209.527603 98.0 
209.72673 103.0 
211.019821 213.0 
213.032532 1724.0 
213.707367 97.0 
215.006409 92.0 
217.006195 247.0 
223.016785 179.0 
225.032181 182.0 
227.045609 269.0 
236.998245 122.0 
238.030151 125.0 
239.046875 1358.0 
239.085098 184.0 
241.037445 564.0 
241.063843 443.0 
253.056259 138.0 
254.070679 169.0 
257.071503 215.0 
263.054504 239.0 
264.086761 154.0 
265.063965 1211.0 
267.078491 921.0 
274.000031 152.0 
277.066223 185.0 
279.077667 127.0 
280.648193 321.0 
281.09317 1821.0 
282.097015 311.0 
283.063995 159.0 
283.090393 333.0 
289.059845 184.0 
291.080627 400.0 
295.123413 180.0 
303.072205 134.0 
305.090424 242.0 
307.115997 104.0 
309.095337 221.0 
311.049927 134.0 
321.071106 225.0 
333.129608 686.0 
334.126404 171.0 
335.143066 117.0 
349.16568 112.0 
350.158813 189.0 
359.264862 181.0 
377.192047 231.0 
387.171722 2161.0 
388.173523 781.0 
405.181335 2744.0 
406.188629 408.0 
592.346069 191.0 
1715.029785 198.0 
END IONS

BEGIN IONS
TITLE=Scan Number: 297
PEPMASS=573.32397
CHARGE=1+
MSLEVEL=2
FILENAME=A4_BA4_01_2836.mzXML
INSTRUMENT=ion trap
SCANS=297
SMILES=ON1CCCCCNC(=O)CCC(=O)N(O)CCCCNC(=O)CCC(=O)N(O)CCCCNC(=O)CCC1=O
INCHIKEY=YEUGMACLLZSLDG-UHFFFAOYSA-N
70.040489 514.0 
70.064796 15373.0 
70.118668 125.0 
70.525108 63.0 
70.87632 89.0 
70.894241 89.0 
71.026031 51.0 
71.071983 6341.0 
71.505569 142.0 
71.78286 217.0 
72.043144 686.0 
72.08149 1922.0 
72.346344 315.0 
73.028572 482.0 
74.13327 167.0 
74.826103 170.0 
75.215034 259.0 
75.459473 145.0 
75.483124 255.0 
76.429665 287.0 
79.051964 242.0 
80.049652 326.0 
80.33461 211.0 
80.579453 91.0 
81.853676 188.0 
82.022247 250.0 
82.06472 189.0 
83.034157 117.0 
84.045807 1704.0 
84.080658 22580.0 
84.106949 102.0 
84.88945 209.0 
84.936501 114.0 
85.027351 125.0 
85.044937 184.0 
85.08638 7141.0 
85.161224 253.0 
85.572365 93.0 
85.700241 260.0 
85.719444 99.0 
86.047546 350.0 
86.0606 578.0 
86.095482 642.0 
87.091835 1020.0 
87.197128 247.0 
87.253334 169.0 
87.833954 85.0 
87.856377 87.0 
87.938324 165.0 
88.024399 207.0 
88.038795 506.0 
88.075233 98963.0 
88.122665 367.0 
88.168823 106.0 
88.27668 189.0 
88.293076 182.0 
88.37542 59.0 
88.45681 191.0 
88.471901 203.0 
88.539055 57.0 
89.046394 74.0 
89.077652 4248.0 
89.170876 70.0 
89.26947 63.0 
89.386642 73.0 
89.492065 81.0 
89.560364 220.0 
89.686539 104.0 
89.7407 74.0 
90.080482 275.0 
90.100204 122.0 
90.427071 172.0 
91.018005 56.0 
93.262909 130.0 
93.28289 203.0 
93.549271 287.0 
94.917328 71.0 
95.324059 265.0 
96.081192 367.0 
96.846863 55.0 
96.874535 215.0 
97.078804 573.0 
98.09613 370.0 
99.034172 200.0 
99.093788 488.0 
100.039307 22614.0 
100.077431 417.0 
100.267868 182.0 
100.594124 68.0 
100.992447 192.0 
101.023323 2861.0 
101.043739 1918.0 
101.634964 135.0 
102.040901 259.0 
102.091347 45833.0 
102.140465 94.0 
102.379417 99.0 
102.395851 77.0 
102.432358 141.0 
102.975754 130.0 
103.092979 3329.0 
103.149124 181.0 
104.09774 260.0 
104.19516 122.0 
105.102097 423.0 
106.064331 372.0 
106.104004 199.0 
107.121086 94.0 
107.410179 310.0 
108.040939 650.0 
108.082603 690.0 
108.507271 295.0 
109.06572 222.0 
109.940804 144.0 
110.055115 329.0 
110.097679 540.0 
111.054794 408.0 
111.088509 604.0 
111.98037 133.0 
112.039391 13703.0 
112.075455 1885.0 
112.111824 809.0 
112.396545 99.0 
113.043915 793.0 
113.077629 180.0 
113.482536 96.0 
114.050438 85.0 
114.088875 472.0 
114.209396 179.0 
114.427055 84.0 
115.119713 140.0 
115.333199 215.0 
115.59671 125.0 
115.732109 105.0 
115.82782 160.0 
116.033791 2766.0 
117.041801 263.0 
117.757164 247.0 
118.040314 248.0 
119.048805 279.0 
119.08947 221.0 
119.116661 749.0 
120.042503 157.0 
120.080002 991.0 
120.101837 231.0 
120.244156 237.0 
120.57753 260.0 
120.973488 141.0 
121.088356 198.0 
122.098511 854.0 
122.756836 98.0 
123.091728 10603.0 
124.075539 5892.0 
124.773102 328.0 
125.060532 1131.0 
125.107872 704.0 
126.03299 55.0 
126.056404 821.0 
126.09111 2186.0 
126.124748 195.0 
126.255379 256.0 
127.051422 477.0 
127.957123 342.0 
127.996208 197.0 
128.034592 5124.0 
128.072571 1638.0 
128.10379 126.0 
129.102173 950.0 
130.048447 1142.0 
131.057693 98.0 
132.365265 49.0 
133.080704 190.0 
134.062744 364.0 
134.082275 238.0 
136.039062 156.0 
136.074081 311.0 
136.86879 134.0 
137.071014 477.0 
137.107788 4527.0 
137.26532 154.0 
138.059662 186.0 
138.091309 5212.0 
139.092667 559.0 
140.070526 25632.0 
140.108459 282.0 
140.514328 239.0 
141.0737 1591.0 
141.102203 1923.0 
141.720795 185.0 
141.960342 126.0 
142.04538 97.0 
142.086945 3462.0 
143.090515 420.0 
146.105057 103.0 
146.675217 246.0 
147.517212 168.0 
148.075409 566.0 
148.264862 333.0 
149.078918 90.0 
150.245819 131.0 
151.086288 10678.0 
152.07193 5941.0 
152.93924 165.0 
153.040649 203.0 
153.073914 1302.0 
153.10202 310.0 
153.946762 191.0 
154.086182 45575.0 
154.12233 201.0 
154.167908 116.0 
154.190613 167.0 
154.316849 77.0 
154.336823 137.0 
154.486145 62.0 
155.052002 173.0 
155.090256 3183.0 
155.119385 383.0 
156.102859 1176.0 
156.164642 195.0 
157.530319 308.0 
158.077789 656.0 
158.707687 264.0 
158.773331 51.0 
158.944244 202.0 
160.964706 82.0 
164.106339 308.0 
164.622925 98.0 
164.672531 58.0 
165.102966 10459.0 
165.699768 137.0 
165.889481 135.0 
166.085983 4386.0 
166.372116 141.0 
167.093857 906.0 
167.11908 150.0 
167.274048 108.0 
168.062973 473.0 
168.101059 5841.0 
168.162598 158.0 
169.097183 38983.0 
169.140442 227.0 
170.081299 46385.0 
170.223007 155.0 
170.472885 147.0 
171.02005 140.0 
171.085068 3048.0 
171.455307 182.0 
171.592697 99.0 
171.763565 146.0 
172.027069 270.0 
172.096039 3160.0 
172.484573 196.0 
173.131027 233.0 
174.103714 321.0 
177.050552 225.0 
177.898132 81.0 
178.055832 139.0 
178.087555 98.0 
178.117828 212.0 
180.075577 161.0 
180.103195 371.0 
180.401596 367.0 
180.911652 80.0 
182.154694 129.0 
182.380569 71.0 
182.675308 172.0 
182.909744 144.0 
183.11235 12779.0 
183.338943 74.0 
183.77153 56.0 
184.095917 12707.0 
185.100052 1461.0 
185.127563 749.0 
185.526443 452.0 
185.687332 104.0 
185.884598 168.0 
186.21228 197.0 
186.350998 153.0 
186.620514 82.0 
186.730652 204.0 
186.776764 302.0 
186.946854 230.0 
186.984924 248.0 
187.014465 121.0 
187.051224 440.0 
187.107941 206124.0 
187.208481 122.0 
187.233337 75.0 
187.510178 274.0 
187.603256 72.0 
187.745316 120.0 
188.110992 15071.0 
188.642197 93.0 
189.017105 184.0 
189.08345 341.0 
189.278473 58.0 
189.552383 547.0 
189.714752 59.0 
194.142654 339.0 
195.291031 91.0 
196.480347 86.0 
197.061523 109.0 
197.096848 601.0 
197.127792 174.0 
198.957886 112.0 
199.598648 74.0 
200.147446 138.0 
200.502838 49.0 
200.720932 77.0 
201.045731 329.0 
201.074783 673.0 
201.123734 58098.0 
201.509415 98.0 
201.772659 82.0 
202.091599 211.0 
202.12529 3625.0 
202.174622 55.0 
202.542435 71.0 
202.634155 194.0 
203.120407 149.0 
203.433014 61.0 
203.62738 274.0 
203.703003 108.0 
203.807358 167.0 
204.133957 560.0 
204.501678 198.0 
205.12236 2541.0 
208.135483 219.0 
210.804733 100.0 
211.110504 335.0 
211.148117 282.0 
212.112015 162.0 
212.151138 170.0 
213.126663 219.0 
214.088547 90.0 
215.09108 236.0 
215.836792 217.0 
218.14946 488.0 
219.017105 245.0 
219.087906 146.0 
219.134689 1508.0 
219.893509 98.0 
220.63736 150.0 
222.701294 137.0 
223.111191 704.0 
225.121506 190.0 
229.15065 129.0 
234.866684 159.0 
236.981476 145.0 
237.125244 644.0 
239.137421 147.0 
240.373337 156.0 
241.125824 244.0 
242.146912 130.0 
243.418457 101.0 
244.325089 57.0 
246.269104 119.0 
247.109909 195.0 
251.103653 697.0 
251.981079 111.0 
252.107071 551.0 
252.162888 88.0 
253.123291 114.0 
253.765259 92.0 
255.134415 270.0 
255.180313 116.0 
258.07666 133.0 
258.574921 94.0 
263.249115 282.0 
265.113037 119.0 
265.578796 126.0 
266.119598 130.0 
268.136597 981.0 
268.444702 104.0 
268.690582 130.0 
269.031128 137.0 
269.08197 573.0 
269.114288 17801.0 
269.304047 53.0 
269.998596 173.0 
270.115326 1944.0 
270.181763 291.0 
271.180908 88.0 
271.663727 60.0 
273.189728 217.0 
273.879913 58.0 
274.15686 115.0 
279.094818 149.0 
280.427551 55.0 
281.730469 113.0 
282.119141 70.0 
282.152405 140.0 
282.996735 61.0 
283.068939 172.0 
283.130676 9299.0 
283.308746 139.0 
283.713226 406.0 
284.136505 1455.0 
284.312164 85.0 
285.554443 149.0 
285.944885 106.0 
286.051453 80.0 
286.110535 166.0 
286.143921 800.0 
286.556152 178.0 
286.7388 55.0 
287.125916 7268.0 
287.210144 81.0 
287.441376 158.0 
288.127991 1745.0 
288.194305 850.0 
288.760773 74.0 
289.134705 350.0 
290.690491 157.0 
291.20163 473.0 
292.206268 192.0 
296.324493 165.0 
298.177063 185.0 
300.158844 207.0 
301.141235 5689.0 
302.143982 253.0 
304.204498 151.0 
304.71402 86.0 
304.967712 179.0 
305.218475 1230.0 
306.219299 555.0 
316.158569 147.0 
318.165588 365.0 
319.230164 163.0 
322.371277 305.0 
327.195953 97.0 
338.169739 336.0 
339.024902 205.0 
341.22049 591.0 
342.210358 107.0 
344.237579 181.0 
345.58078 325.0 
346.241394 134.0 
351.372345 128.0 
352.191711 697.0 
353.20105 301.0 
355.202484 1817.0 
356.190063 749.0 
357.008301 157.0 
357.178101 79.0 
357.213623 98.0 
368.23111 91.0 
368.856232 100.0 
369.168579 165.0 
369.21817 2202.0 
370.18924 250.0 
371.106262 189.0 
371.224182 213.0 
371.729553 108.0 
372.222809 412.0 
372.52832 78.0 
372.855286 218.0 
373.087555 153.0 
373.126434 313.0 
373.210144 43181.0 
373.350983 199.0 
373.65683 84.0 
374.213287 7328.0 
375.179535 214.0 
375.21344 140.0 
375.514832 76.0 
376.681213 90.0 
377.779419 110.0 
378.969696 54.0 
383.239349 341.0 
384.079834 105.0 
385.029175 157.0 
385.103241 65.0 
385.365997 181.0 
385.594238 136.0 
385.697235 94.0 
385.725739 163.0 
386.079651 131.0 
386.300232 65.0 
386.451813 187.0 
386.97171 88.0 
387.013184 166.0 
387.133881 845.0 
387.225342 100777.0 
387.30899 220.0 
387.357971 108.0 
387.780914 100.0 
387.881592 137.0 
388.157593 218.0 
388.228638 13446.0 
388.296875 105.0 
388.887085 55.0 
389.06488 282.0 
389.235107 591.0 
389.332306 55.0 
389.569611 144.0 
390.167847 104.0 
390.243378 64.0 
390.569305 127.0 
390.800873 56.0 
391.222046 1100.0 
391.762268 78.0 
393.49881 86.0 
393.925964 112.0 
394.278259 71.0 
396.404694 177.0 
396.720459 199.0 
397.25293 294.0 
399.265137 57.0 
402.254364 86.0 
404.532654 79.0 
405.238922 1159.0 
406.239471 230.0 
407.535431 61.0 
415.019836 99.0 
416.042694 165.0 
421.038971 52.0 
422.022888 169.0 
422.160004 223.0 
422.334106 115.0 
425.205536 100.0 
427.036407 161.0 
429.322662 224.0 
430.311035 208.0 
433.025024 164.0 
437.312805 129.0 
437.553253 54.0 
439.463135 178.0 
441.243652 188.0 
441.732086 129.0 
450.982941 182.0 
451.209229 88.0 
455.209167 792.0 
455.277222 96.0 
455.910614 72.0 
457.940826 100.0 
459.072296 168.0 
460.014557 357.0 
460.535645 226.0 
461.237427 63.0 
465.049194 172.0 
467.31778 151.0 
467.685699 255.0 
469.229065 3686.0 
469.868042 140.0 
470.241241 643.0 
471.453705 213.0 
473.193756 203.0 
473.229919 727.0 
473.312103 707.0 
474.281036 124.0 
474.312653 142.0 
475.195312 85.0 
475.290466 179.0 
478.572754 195.0 
486.65213 221.0 
487.239807 911.0 
487.568237 68.0 
488.216888 147.0 
488.250122 198.0 
494.105225 168.0 
494.60968 246.0 
496.385315 170.0 
496.994934 103.0 
508.765869 103.0 
510.314056 133.0 
511.332092 183.0 
522.15863 107.0 
526.564758 53.0 
527.308594 50.0 
529.338562 90.0 
529.786133 85.0 
538.447083 156.0 
547.076965 142.0 
547.832031 86.0 
553.956299 154.0 
554.750488 99.0 
555.182434 168.0 
555.232056 158.0 
555.320312 2032.0 
556.287292 222.0 
556.332947 1140.0 
557.341309 59.0 
560.470032 226.0 
564.184692 55.0 
564.802734 59.0 
565.268005 121.0 
565.624878 88.0 
566.309021 96.0 
567.264221 72.0 
567.870667 50.0 
568.281494 84.0 
568.947571 130.0 
569.173462 118.0 
569.409363 79.0 
569.659119 77.0 
569.768066 97.0 
570.032654 61.0 
570.357422 221.0 
570.414429 150.0 
570.631714 110.0 
570.813782 142.0 
571.104614 110.0 
571.178162 237.0 
571.305481 50.0 
571.432434 56.0 
571.509216 256.0 
571.60791 178.0 
571.759521 167.0 
571.807678 331.0 
571.93103 408.0 
572.048096 113.0 
572.131531 226.0 
572.213806 149.0 
572.24939 352.0 
572.300903 254.0 
572.340698 437.0 
572.385559 316.0 
572.666321 139.0 
572.821777 133.0 
572.862549 260.0 
572.935059 251.0 
573.006165 810.0 
573.074036 265.0 
573.187134 2626.0 
573.326416 411804.0 
573.472778 348.0 
573.539673 481.0 
573.588501 480.0 
573.641296 396.0 
573.684509 141.0 
573.767761 297.0 
573.802979 314.0 
573.852478 76.0 
573.994385 302.0 
574.064026 610.0 
574.15448 742.0 
574.197021 434.0 
574.329285 84151.0 
574.483398 269.0 
574.56311 93.0 
574.609985 93.0 
574.648315 120.0 
574.785461 160.0 
574.888123 200.0 
574.958008 145.0 
575.088684 196.0 
575.153259 216.0 
575.223267 129.0 
575.266479 130.0 
575.33313 4796.0 
575.43335 81.0 
575.518433 129.0 
575.757507 172.0 
576.153503 75.0 
576.283203 57.0 
576.329651 227.0 
576.579712 59.0 
576.649475 144.0 
576.864258 51.0 
577.110657 138.0 
577.278259 108.0 
577.381714 371.0 
577.578979 145.0 
577.627319 211.0 
577.77063 250.0 
577.844971 86.0 
577.940918 120.0 
578.083374 106.0 
578.126587 121.0 
578.284363 81.0 
578.381897 135.0 
578.462708 52.0 
578.531494 197.0 
578.776733 49.0 
579.656372 66.0 
579.792297 77.0 
580.248169 81.0 
581.632019 74.0 
582.906311 60.0 
589.526306 114.0 
589.788452 56.0 
590.648804 78.0 
591.389709 52.0 
593.090515 108.0 
593.875122 94.0 
596.162415 73.0 
596.32135 92.0 
597.273132 48.0 
667.58606 139.0 
910.46228 47.0 
975.053894 299.0 
1032.831543 91.0 
1165.307129 186.0 
1279.669067 89.0 
1482.488647 48.0 
1519.047729 247.0 
1567.728516 299.0 
1609.967041 55.0 
1709.664307 127.0 
1735.830444 150.0 
1758.640991 173.0 
1772.36438 333.0 
1812.237671 314.0 
1927.582275 153.0 
1927.802124 61.0 
1931.84668 314.0 
1986.576294 273.0 
1994.835815 172.0 
END IONS

BEGIN IONS
TITLE=Scan Number: 298
PEPMASS=595.30603
CHARGE=1+
MSLEVEL=2
FILENAME=A4_BA4_01_2836.mzXML
INSTRUMENT=ion trap
SCANS=298
SMILES=ON1CCCCCNC(=O)CCC(=O)N(O)CCCCNC(=O)CCC(=O)N(O)CCCCNC(=O)CCC1=O
INCHIKEY=YEUGMACLLZSLDG-UHFFFAOYSA-N
74.680084 124.0 
84.079239 199.0 
87.075111 125.0 
92.0476 171.0 
95.032578 229.0 
106.059792 542.0 
109.072067 223.0 
109.252159 145.0 
115.044746 196.0 
121.614799 116.0 
122.018669 197.0 
122.058273 225.0 
123.005089 414.0 
123.089119 464.0 
125.110886 234.0 
134.007355 197.0 
136.07373 148.0 
137.082489 645.0 
138.02037 279.0 
141.015106 216.0 
143.004349 183.0 
149.046539 225.0 
151.098251 182.0 
153.05986 203.0 
154.043854 257.0 
155.04863 183.0 
164.072952 151.0 
166.04097 256.0 
167.04068 106.0 
168.089645 82.0 
177.049072 151.0 
177.065475 197.0 
177.096024 134.0 
180.080276 325.0 
181.070267 321.0 
181.097015 127.0 
182.078751 377.0 
182.104034 151.0 
183.079605 194.0 
188.093948 218.0 
191.065018 117.0 
192.084778 373.0 
193.034058 149.0 
193.090256 194.0 
195.071487 702.0 
195.100861 159.0 
203.112198 142.0 
206.124863 161.0 
207.106735 273.0 
208.099335 159.0 
209.097626 418.0 
210.076096 144.0 
210.118912 174.0 
219.110413 129.0 
220.068817 203.0 
222.119858 305.0 
223.106384 1917.0 
224.104523 156.0 
226.092316 328.0 
227.103638 726.0 
228.101868 130.0 
233.12944 373.0 
235.141449 409.0 
237.081131 294.0 
237.111359 568.0 
238.129837 270.0 
239.188263 135.0 
240.124237 288.0 
241.110672 255.0 
247.122818 299.0 
248.11351 229.0 
249.119446 206.0 
249.158432 286.0 
250.118149 649.0 
250.156296 496.0 
251.096985 191.0 
251.136932 166.0 
251.808212 221.0 
252.043793 133.0 
252.137787 451.0 
252.184113 165.0 
253.131851 199.0 
254.105865 117.0 
260.114777 172.0 
263.094666 227.0 
263.171906 278.0 
265.112244 465.0 
265.151306 194.0 
265.199951 331.0 
266.121307 219.0 
266.153839 362.0 
267.160248 146.0 
267.500397 109.0 
274.096832 216.0 
276.131989 111.0 
277.163605 106.0 
278.140961 144.0 
279.129822 480.0 
279.16925 188.0 
279.214203 128.0 
280.122375 139.0 
280.159454 399.0 
281.114594 224.0 
282.117523 136.0 
290.111298 279.0 
291.19101 212.0 
292.123505 412.0 
292.181213 562.0 
293.057404 201.0 
293.164185 150.0 
294.114838 187.0 
295.178375 623.0 
296.183105 140.0 
305.156647 133.0 
306.150452 203.0 
308.114594 257.0 
308.157684 661.0 
309.102631 701.0 
309.189301 1411.0 
309.640472 132.0 
310.155029 337.0 
311.199921 94.0 
313.181244 202.0 
318.149323 130.0 
319.176758 260.0 
320.097992 151.0 
320.160797 393.0 
321.156708 345.0 
322.156738 153.0 
323.174072 158.0 
323.209473 196.0 
323.24057 208.0 
326.434814 83.0 
327.206848 196.0 
332.191895 395.0 
333.180237 144.0 
334.163635 248.0 
336.182617 314.0 
337.144745 139.0 
337.195648 461.0 
339.102936 268.0 
340.147949 262.0 
343.176971 127.0 
347.154114 167.0 
347.218994 396.0 
348.179474 167.0 
349.119965 144.0 
349.197052 110.0 
350.201569 107.0 
351.16272 133.0 
351.216614 523.0 
352.143311 243.0 
353.149841 134.0 
362.213715 117.0 
363.181885 536.0 
364.209961 308.0 
364.248718 328.0 
365.118195 81.0 
365.181702 278.0 
365.220184 365.0 
366.068359 139.0 
366.161255 195.0 
367.184326 443.0 
368.195984 363.0 
375.201141 195.0 
376.197144 258.0 
377.178101 468.0 
378.16333 163.0 
379.168213 173.0 
381.21524 73.0 
382.207214 384.0 
389.215637 116.0 
391.202667 361.0 
391.932129 255.0 
392.160675 455.0 
393.175262 110.0 
393.216522 292.0 
394.130402 123.0 
395.190582 933.0 
396.198425 311.0 
405.171661 206.0 
406.219879 182.0 
407.21759 335.0 
408.191345 140.0 
409.203827 2498.0 
410.205566 921.0 
411.218689 319.0 
412.220306 86.0 
419.223358 464.0 
420.22171 146.0 
421.240692 171.0 
422.196198 258.0 
422.252228 227.0 
423.17688 189.0 
426.232819 432.0 
430.261047 214.0 
433.298065 111.0 
434.237183 106.0 
435.224487 124.0 
436.225189 401.0 
437.207764 808.0 
438.241302 102.0 
444.05368 193.0 
448.209717 218.0 
451.298126 133.0 
461.277039 115.0 
462.267029 329.0 
470.512512 238.0 
475.211823 130.0 
476.249054 169.0 
477.25412 245.0 
478.266327 191.0 
480.289032 429.0 
483.522736 267.0 
483.876831 198.0 
488.220917 132.0 
492.294739 176.0 
494.28479 118.0 
495.204163 109.0 
495.291229 3808.0 
496.289703 798.0 
497.30835 125.0 
505.227631 133.0 
507.327301 160.0 
508.278046 90.0 
509.222107 410.0 
509.303345 130.0 
515.902527 222.0 
518.300659 185.0 
519.302246 141.0 
520.273438 304.0 
523.257019 133.0 
526.255127 114.0 
531.25946 135.0 
533.153748 140.0 
533.31366 500.0 
533.74408 150.0 
535.249207 89.0 
537.94989 174.0 
549.309875 153.0 
550.258728 122.0 
550.340759 179.0 
551.246826 132.0 
551.284485 265.0 
551.323303 992.0 
552.32196 352.0 
553.176025 137.0 
562.305237 122.0 
567.305786 179.0 
568.321899 188.0 
570.139709 89.0 
572.799927 179.0 
573.337463 145.0 
576.346802 309.0 
577.323425 385.0 
577.64801 407.0 
578.308472 121.0 
579.297363 255.0 
579.845459 237.0 
588.739685 81.0 
590.06488 81.0 
592.352905 146.0 
592.75238 94.0 
593.321167 468.0 
593.888 145.0 
594.334595 3973.0 
594.644531 148.0 
595.026489 284.0 
595.136719 400.0 
595.30835 137696.0 
595.399719 329.0 
595.462646 284.0 
595.537415 406.0 
595.769653 120.0 
595.834656 193.0 
595.966797 183.0 
596.07489 203.0 
596.196594 720.0 
596.311035 29563.0 
596.475037 178.0 
596.557068 205.0 
596.810242 145.0 
597.005188 127.0 
597.066406 93.0 
597.311829 2151.0 
597.432068 91.0 
598.309631 436.0 
598.418518 120.0 
599.0271 84.0 
599.295349 99.0 
599.349487 176.0 
599.497009 267.0 
599.668091 268.0 
599.722717 95.0 
599.901367 88.0 
600.265137 124.0 
600.45636 95.0 
600.693176 187.0 
613.277649 220.0 
614.290833 125.0 
615.272522 87.0 
823.454895 94.0 
1614.055176 257.0 
END IONS

BEGIN IONS
TITLE=Scan Number: 299
PEPMASS=933.26599
CHARGE=1+
MSLEVEL=2
FILENAME=A4_BA4_01_2836.mzXML
INSTRUMENT=ion trap
SCANS=299
SMILES=COC1=C(O)C=CC(=C1)C2=CC(=O)C3=C(O)C(C4OC(CO)C(O)C(OC5OC(CO)C(O)C(O)C5OC6OC(CO)C(O)C(O)C6O)C4OC(=O)\C=C\C7=CC=C(O)C=C7)=C(O)C=C3O2
INCHIKEY=KGIKNRDXVXAZPV-RUDMXATFSA-N
81.032608 182.0 
85.027618 144.0 
91.05455 536.0 
97.027214 91.0 
97.237785 156.0 
98.139412 127.0 
99.199181 163.0 
108.059357 154.0 
109.027664 951.0 
119.049271 4216.0 
125.087479 384.0 
127.038651 224.0 
129.101685 246.0 
145.023727 195.0 
146.06398 252.0 
146.903244 294.0 
146.997131 399.0 
147.043701 83310.0 
148.047241 8590.0 
149.047348 515.0 
149.252563 218.0 
149.282272 151.0 
149.319489 85.0 
165.052948 1326.0 
166.059555 190.0 
217.046997 131.0 
230.663956 217.0 
249.080292 340.0 
259.337738 329.0 
260.36911 151.0 
291.0849 4700.0 
292.08963 707.0 
297.082764 275.0 
297.588531 157.0 
298.049072 255.0 
300.058777 148.0 
301.019257 125.0 
301.072815 2628.0 
302.073914 610.0 
309.055481 184.0 
309.097443 4606.0 
310.037781 132.0 
310.106995 437.0 
311.086761 513.0 
311.293335 231.0 
312.455811 131.0 
313.069397 11408.0 
313.98175 82.0 
314.077148 2069.0 
315.079468 595.0 
317.063354 121.0 
322.852539 153.0 
324.063263 84.0 
325.070496 1519.0 
326.080139 142.0 
327.08609 763.0 
327.76001 235.0 
328.060059 295.0 
335.084625 151.0 
337.077515 182.0 
338.830048 200.0 
339.081146 1281.0 
340.011719 154.0 
340.059357 192.0 
340.101562 266.0 
341.066132 381.0 
343.081116 33548.0 
343.209869 209.0 
343.308563 166.0 
344.016937 178.0 
344.084686 5296.0 
345.090637 897.0 
346.070251 149.0 
346.447723 126.0 
351.0914 191.0 
353.100769 2586.0 
353.302185 204.0 
353.35611 238.0 
354.095184 543.0 
355.077209 537.0 
363.095673 135.0 
365.105804 333.0 
366.069275 162.0 
366.985229 163.0 
367.081696 8565.0 
367.852142 151.0 
368.032562 120.0 
368.083466 2087.0 
369.082794 241.0 
371.067078 141.0 
377.793701 183.0 
379.033295 279.0 
379.079773 2556.0 
380.069397 413.0 
380.093109 361.0 
380.828949 277.0 
381.089783 1640.0 
382.092712 605.0 
384.563477 177.0 
385.099976 511.0 
391.084167 1987.0 
393.06015 146.0 
394.068787 206.0 
397.09613 1196.0 
398.082428 187.0 
398.860809 141.0 
403.071747 201.0 
408.997162 232.0 
409.092102 4749.0 
410.102753 586.0 
411.012634 277.0 
411.389923 81.0 
413.15686 83.0 
418.248199 170.0 
421.097656 187.0 
424.065491 126.0 
427.102264 2414.0 
428.103607 507.0 
429.108398 306.0 
441.979492 173.0 
443.115021 99.0 
444.126221 153.0 
445.113434 1472.0 
446.122986 331.0 
446.509094 119.0 
447.109711 450.0 
448.949402 125.0 
451.699677 240.0 
462.962128 279.0 
463.05545 324.0 
463.121063 1124.0 
464.134369 697.0 
473.177002 221.0 
474.924652 105.0 
475.122986 9124.0 
476.122009 1482.0 
477.123993 429.0 
482.876953 137.0 
487.12146 867.0 
489.163422 301.0 
491.762329 197.0 
499.12851 110.0 
503.114624 99.0 
504.862976 105.0 
505.025848 209.0 
505.135132 28837.0 
505.877655 97.0 
505.944519 177.0 
506.136353 5605.0 
506.313568 89.0 
507.13974 1067.0 
507.295105 122.0 
507.587067 83.0 
512.622803 143.0 
515.112 346.0 
515.154114 240.0 
525.132629 144.0 
526.141785 221.0 
528.443726 142.0 
528.913025 191.0 
528.972961 165.0 
529.064819 296.0 
529.133545 10137.0 
529.859863 183.0 
530.141968 3109.0 
531.139038 383.0 
531.828125 72.0 
535.132202 103.0 
541.138184 1037.0 
543.107788 420.0 
543.157227 397.0 
544.150818 89.0 
547.152222 114.0 
553.130737 360.0 
554.133667 362.0 
557.234436 264.0 
557.530212 244.0 
559.144226 4590.0 
559.727295 318.0 
560.146912 1299.0 
561.078369 112.0 
561.154053 465.0 
566.981567 88.0 
571.049011 335.0 
571.146301 5438.0 
572.15509 237.0 
573.142822 267.0 
587.035278 265.0 
589.154419 9351.0 
589.259216 320.0 
590.059692 131.0 
590.158264 2054.0 
590.63385 234.0 
591.141479 185.0 
592.322876 118.0 
604.690369 180.0 
607.166016 20632.0 
607.243164 321.0 
607.380798 131.0 
607.543335 315.0 
607.963318 149.0 
608.168152 4859.0 
609.037354 114.0 
609.115662 169.0 
609.180054 1008.0 
611.669922 121.0 
621.173035 182.0 
625.176636 26474.0 
625.299194 158.0 
626.074646 293.0 
626.184509 5378.0 
627.180664 1364.0 
628.176086 98.0 
629.138428 99.0 
629.429565 150.0 
629.803772 155.0 
630.556885 91.0 
633.151123 101.0 
644.304138 138.0 
651.175537 123.0 
667.201843 337.0 
668.193359 129.0 
675.144165 150.0 
682.138428 117.0 
687.146484 213.0 
705.181519 150.0 
717.189697 413.0 
721.203308 159.0 
736.150513 210.0 
751.201538 245.0 
753.198059 493.0 
769.219238 284.0 
770.166565 243.0 
770.323975 132.0 
771.219482 1960.0 
772.217834 715.0 
773.216797 139.0 
787.116516 120.0 
787.240784 1231.0 
788.233398 435.0 
795.192566 154.0 
813.157532 348.0 
813.223145 1513.0 
813.388489 134.0 
815.218872 80.0 
879.258667 194.0 
886.470703 114.0 
898.26355 90.0 
899.219055 120.0 
914.441528 132.0 
915.261475 750.0 
916.261597 587.0 
918.270081 283.0 
932.995117 119.0 
933.264587 14575.0 
934.002502 91.0 
934.050476 160.0 
934.123047 199.0 
934.266663 6291.0 
935.149597 101.0 
935.205872 285.0 
935.265503 1239.0 
941.736633 154.0 
955.594727 142.0 
1348.683594 211.0 
1420.294556 241.0 
1427.306519 110.0 
1445.467529 237.0 
1496.541626 345.0 
1613.606323 276.0 
1818.060181 273.0 
END IONS

BEGIN IONS
TITLE=Scan Number: 300
PEPMASS=949.26099
CHARGE=1+
MSLEVEL=2
FILENAME=A4_BA4_01_2836.mzXML
INSTRUMENT=ion trap
SCANS=300
SMILES=COC1=C(O)C=CC(=C1)C2=CC(=O)C3=C(O)C(C4OC(CO)C(O)C(OC5OC(CO)C(O)C(O)C5OC6OC(CO)C(O)C(O)C6O)C4OC(=O)\C=C\C7=CC=C(O)C(O)=C7)=C(O)C=C3O2
INCHIKEY=RUOOWOZSSMOGHQ-XVNBXDOJSA-N
70.067245 208.0 
78.152763 166.0 
81.032936 168.0 
85.025726 621.0 
89.031319 387.0 
96.819702 230.0 
99.040306 250.0 
103.42691 158.0 
105.76445 180.0 
109.031418 590.0 
110.033577 195.0 
115.039352 113.0 
117.036316 1395.0 
118.035637 197.0 
119.048027 167.0 
126.093315 318.0 
127.038216 311.0 
131.792694 307.0 
133.395584 176.0 
134.034866 898.0 
145.001556 211.0 
145.027527 23701.0 
145.072983 192.0 
145.389496 173.0 
145.669708 161.0 
146.031586 1857.0 
146.055603 419.0 
149.059128 2653.0 
150.062302 270.0 
152.019119 292.0 
156.1064 193.0 
163.034973 280.0 
164.248672 285.0 
175.81311 163.0 
176.138397 150.0 
176.402695 146.0 
176.50383 72.0 
176.669495 167.0 
176.712418 186.0 
176.750366 114.0 
177.054398 115462.0 
177.222595 194.0 
177.366806 234.0 
177.412216 227.0 
177.905212 110.0 
177.992432 179.0 
178.057373 10121.0 
179.058746 427.0 
179.335907 147.0 
179.413483 120.0 
179.44931 208.0 
179.530655 102.0 
179.550919 170.0 
179.614304 100.0 
186.05603 130.0 
189.064362 112.0 
194.062012 179.0 
195.06398 1567.0 
196.067368 203.0 
196.501785 147.0 
203.065231 150.0 
216.74321 220.0 
217.282837 138.0 
222.063889 184.0 
258.688568 195.0 
276.89032 102.0 
278.365509 196.0 
279.087128 913.0 
283.052948 228.0 
284.311737 111.0 
286.215607 221.0 
286.50061 79.0 
287.057159 1373.0 
288.058167 580.0 
288.255371 418.0 
295.050781 139.0 
296.793579 80.0 
298.045166 129.0 
298.865784 207.0 
298.993378 475.0 
299.014374 479.0 
299.055206 14883.0 
300.004059 128.0 
300.058716 2569.0 
301.052826 433.0 
301.566895 228.0 
310.873138 169.0 
311.056061 1900.0 
312.053436 536.0 
313.034058 723.0 
313.074982 302.0 
314.083069 267.0 
314.995636 116.0 
315.052063 213.0 
316.0448 185.0 
319.762787 228.0 
321.010742 178.0 
321.098175 4694.0 
322.095215 417.0 
323.0513 521.0 
324.990265 160.0 
325.068573 2344.0 
326.037811 222.0 
326.075562 457.0 
327.795441 268.0 
328.055695 196.0 
328.936554 176.0 
328.977997 455.0 
329.065369 40068.0 
329.253052 93.0 
329.867706 192.0 
329.985809 181.0 
330.069336 8818.0 
331.077301 753.0 
332.426727 132.0 
335.799225 170.0 
338.235443 131.0 
338.89798 141.0 
338.984406 108.0 
339.03833 442.0 
339.10553 7972.0 
339.212677 160.0 
340.040375 123.0 
340.105743 1236.0 
343.004425 177.0 
343.088776 167.0 
343.866882 128.0 
346.989624 203.0 
349.047638 160.0 
350.058899 203.0 
350.890656 95.0 
351.041473 154.0 
351.089966 339.0 
352.096497 152.0 
352.426178 314.0 
353.014038 124.0 
353.065247 12865.0 
353.500092 326.0 
354.019196 157.0 
354.071289 2565.0 
355.079437 308.0 
356.043488 122.0 
359.086548 137.0 
363.082489 162.0 
365.068604 1797.0 
366.076965 992.0 
367.074768 2800.0 
368.085449 129.0 
369.055817 158.0 
371.077087 414.0 
377.065125 2286.0 
378.069183 721.0 
379.056732 133.0 
383.074005 2209.0 
384.082611 113.0 
393.069916 107.0 
394.926941 125.0 
395.010468 143.0 
395.076538 7673.0 
396.078094 1067.0 
397.073853 97.0 
401.069824 126.0 
407.066528 149.0 
412.057587 219.0 
412.399109 181.0 
412.860229 183.0 
413.031982 576.0 
413.086517 3042.0 
414.097809 635.0 
415.088318 287.0 
419.042755 143.0 
431.033325 212.0 
431.098846 2317.0 
438.074524 102.0 
439.100037 94.0 
445.079681 90.0 
449.107666 3121.0 
449.650085 358.0 
450.103607 540.0 
456.280701 142.0 
459.102203 198.0 
461.011078 95.0 
461.106445 8583.0 
461.845367 112.0 
462.111176 2245.0 
463.113373 761.0 
472.854004 153.0 
473.06134 199.0 
473.104279 1104.0 
474.114838 219.0 
477.443451 143.0 
478.058258 153.0 
479.089996 140.0 
482.771484 161.0 
484.852753 271.0 
485.072205 106.0 
487.124725 117.0 
488.746704 133.0 
489.102264 514.0 
490.982544 329.0 
491.118988 28274.0 
492.122772 4633.0 
492.511139 99.0 
492.839142 114.0 
493.063324 87.0 
493.120117 756.0 
495.030945 124.0 
500.957031 167.0 
505.139832 105.0 
511.123199 92.0 
513.110474 170.0 
513.33197 160.0 
514.95282 165.0 
515.021729 136.0 
515.117493 9002.0 
516.123718 983.0 
517.129639 268.0 
521.124146 377.0 
526.969482 190.0 
527.114563 965.0 
528.126282 750.0 
529.157166 377.0 
532.513794 166.0 
533.128052 338.0 
538.835327 290.0 
539.007751 161.0 
539.114868 459.0 
539.541016 161.0 
539.768555 136.0 
540.147705 79.0 
541.117981 182.0 
545.130859 5160.0 
546.132446 821.0 
547.143188 311.0 
551.965942 127.0 
557.127014 2555.0 
558.067749 172.0 
558.129944 569.0 
559.158691 204.0 
574.683167 144.0 
574.821533 125.0 
575.025024 102.0 
575.141724 7499.0 
576.143433 2609.0 
576.264954 268.0 
577.142151 521.0 
577.976624 91.0 
592.283142 81.0 
592.798706 84.0 
592.894714 157.0 
593.020325 417.0 
593.065674 521.0 
593.151001 20954.0 
593.238159 163.0 
594.153259 4855.0 
595.098511 106.0 
595.147583 575.0 
599.125427 80.0 
606.151978 136.0 
607.129944 136.0 
609.189087 154.0 
609.258667 90.0 
610.929138 136.0 
611.160217 30021.0 
611.276184 136.0 
612.163696 7596.0 
613.096069 102.0 
613.170288 1831.0 
617.156372 252.0 
617.269104 121.0 
625.192688 137.0 
626.184998 124.0 
635.153198 126.0 
653.157898 102.0 
667.176086 205.0 
689.172913 269.0 
690.174683 92.0 
720.188477 104.0 
737.203552 125.0 
751.186035 190.0 
755.194275 803.0 
769.146545 136.0 
769.193604 1620.0 
770.210144 193.0 
771.182739 193.0 
773.203491 1413.0 
774.217285 1119.0 
787.202271 1910.0 
788.203979 866.0 
811.196594 115.0 
821.66571 191.0 
829.224426 2980.0 
830.212952 1270.0 
831.147095 93.0 
831.199768 104.0 
865.215393 149.0 
884.235596 156.0 
895.219482 216.0 
931.12384 174.0 
931.19043 288.0 
931.254395 1615.0 
932.25592 590.0 
933.256714 507.0 
941.579224 93.0 
941.85614 194.0 
943.379089 85.0 
946.430847 152.0 
947.798645 132.0 
948.497192 115.0 
948.855164 162.0 
948.928284 107.0 
949.047241 232.0 
949.110291 496.0 
949.263428 23307.0 
950.262756 6604.0 
950.554382 184.0 
951.164001 96.0 
951.261414 2308.0 
952.465454 147.0 
955.426086 102.0 
959.757568 117.0 
960.418213 85.0 
961.552856 78.0 
1119.44165 107.0 
1530.007446 290.0 
1797.03125 191.0 
1885.536987 282.0 
1998.865601 126.0 
END IONS

BEGIN IONS
TITLE=Scan Number: 302
PEPMASS=273.07501
CHARGE=1+
MSLEVEL=2
FILENAME=G3_GG3_01_2823.mzXML
INSTRUMENT=ion trap
SCANS=302
SMILES=COC1=CC(O)=C2C(=O)C3=C(OC2=C1)C=C(O)C=C3C
INCHIKEY=UIKVQKMDLQHSKA-UHFFFAOYSA-N
70.176384 350.0 
75.54689 180.0 
77.038704 134.0 
78.045258 160.0 
78.280174 259.0 
78.548653 356.0 
79.058304 256.0 
80.023422 129.0 
80.062332 98.0 
80.380264 460.0 
80.674553 160.0 
81.033165 573.0 
81.42083 263.0 
83.833153 317.0 
86.447403 222.0 
89.552101 255.0 
90.047012 228.0 
90.112831 146.0 
90.557961 276.0 
91.017815 1494.0 
91.054939 153.0 
91.994408 230.0 
93.719025 198.0 
93.840889 137.0 
94.204491 293.0 
95.013359 553.0 
95.049042 343.0 
98.836807 80.0 
98.988762 70.0 
101.661766 92.0 
102.046272 495.0 
102.887062 282.0 
103.053513 283.0 
105.041695 1261.0 
105.074913 251.0 
105.415726 234.0 
106.04567 316.0 
107.052048 272.0 
107.149261 56.0 
107.822136 227.0 
107.903809 290.0 
108.020561 198.0 
108.058311 203.0 
109.915184 250.0 
111.043762 324.0 
111.769264 354.0 
112.994431 246.0 
115.053703 1102.0 
115.478806 222.0 
115.545853 240.0 
115.734581 299.0 
116.029274 243.0 
116.061081 613.0 
117.032883 149.0 
117.067894 500.0 
118.070953 134.0 
119.046677 347.0 
119.88961 157.0 
120.055771 204.0 
121.026093 404.0 
121.065544 222.0 
122.034332 656.0 
122.582878 218.0 
122.988029 111.0 
123.006111 1285.0 
123.043892 576.0 
124.0149 536.0 
124.053238 165.0 
124.390091 253.0 
124.907532 221.0 
125.022781 335.0 
125.060066 213.0 
125.499054 319.0 
126.031677 184.0 
126.378586 227.0 
127.070648 198.0 
128.032059 226.0 
128.062256 8903.0 
128.610229 392.0 
129.031097 175.0 
129.06871 1728.0 
129.349045 115.0 
129.624969 136.0 
130.027328 117.0 
130.076767 206.0 
130.60936 400.0 
131.048431 1507.0 
131.085556 186.0 
132.054871 940.0 
133.058533 317.0 
133.403595 175.0 
133.783356 248.0 
134.019684 227.0 
134.037704 674.0 
134.672241 60.0 
135.010422 264.0 
135.043106 2193.0 
135.668808 59.0 
136.019669 161.0 
136.045731 454.0 
136.543411 166.0 
136.77739 166.0 
137.027206 191.0 
138.035736 183.0 
139.05307 559.0 
140.065231 205.0 
141.018356 368.0 
141.066116 613.0 
141.373688 344.0 
141.57869 158.0 
142.023682 119.0 
142.048203 279.0 
143.049973 292.0 
143.641129 194.0 
144.062363 304.0 
144.304153 182.0 
144.351257 73.0 
145.025848 343.0 
145.064499 3082.0 
145.263977 286.0 
145.5047 106.0 
146.036499 662.0 
146.072571 2223.0 
147.008896 98.0 
147.043243 4274.0 
147.07988 432.0 
147.359467 198.0 
148.048859 1237.0 
149.059723 179.0 
149.091812 89.0 
150.000137 394.0 
150.031494 1164.0 
150.39386 166.0 
151.038803 9176.0 
151.257889 137.0 
151.775772 273.0 
152.039215 788.0 
154.000031 221.0 
154.041885 640.0 
155.05191 5495.0 
155.850281 175.0 
156.0569 5678.0 
156.143326 156.0 
157.065948 2934.0 
158.074112 477.0 
158.58876 352.0 
158.95343 74.0 
159.04332 690.0 
159.082016 244.0 
159.272354 150.0 
159.381149 152.0 
160.051407 1456.0 
161.016754 238.0 
161.060165 1383.0 
161.097824 150.0 
162.026993 233.0 
162.101044 153.0 
163.039566 547.0 
166.038086 90.0 
166.518448 356.0 
166.960342 135.0 
167.03418 2019.0 
167.52124 225.0 
167.595581 217.0 
168.040329 332.0 
168.058228 431.0 
169.040771 236.0 
169.065994 2321.0 
170.037186 133.0 
170.0681 194.0 
170.088516 120.0 
171.0177 153.0 
171.051743 877.0 
171.079697 383.0 
172.051941 547.0 
173.058716 3049.0 
174.030029 856.0 
174.067413 6247.0 
174.422318 179.0 
175.03743 1259.0 
175.072937 1830.0 
175.586884 231.0 
176.0121 256.0 
176.046692 3765.0 
176.58374 201.0 
176.726639 52.0 
177.053772 450.0 
177.189056 134.0 
177.618256 75.0 
179.049255 143.0 
181.047028 403.0 
182.032837 139.0 
183.018341 171.0 
183.044434 1895.0 
183.950897 268.0 
184.051575 15711.0 
184.329544 101.0 
184.682205 232.0 
185.059052 10080.0 
186.023926 316.0 
186.065796 1026.0 
186.16301 169.0 
186.513504 75.0 
186.926056 73.0 
187.007141 182.0 
187.039978 2429.0 
187.467209 183.0 
187.623734 333.0 
188.046387 2249.0 
188.971237 72.0 
189.057632 461.0 
189.091614 719.0 
189.350479 78.0 
190.026047 385.0 
190.059814 143.0 
190.09436 128.0 
190.491852 334.0 
191.068985 121.0 
191.437988 229.0 
192.076385 173.0 
192.607407 172.0 
195.035629 125.0 
196.010788 252.0 
196.047134 167.0 
197.033401 362.0 
197.058258 1240.0 
198.069565 546.0 
199.076447 1221.0 
200.047272 3672.0 
200.186798 135.0 
200.89502 258.0 
201.054337 20330.0 
201.989182 300.0 
202.062469 17172.0 
202.192307 138.0 
202.260284 145.0 
202.402649 132.0 
203.066238 3200.0 
203.390839 103.0 
204.444046 235.0 
204.487137 222.0 
204.533203 89.0 
205.038498 120.0 
205.292313 185.0 
205.452576 294.0 
205.509125 93.0 
205.570511 99.0 
206.015457 208.0 
206.05687 526.0 
206.095428 293.0 
206.160065 199.0 
207.056137 511.0 
208.033951 106.0 
208.925232 149.0 
209.024567 233.0 
209.06279 196.0 
210.032654 253.0 
210.180695 93.0 
210.252914 94.0 
210.646271 236.0 
210.7444 281.0 
210.815735 400.0 
210.970825 267.0 
211.038406 1583.0 
211.452362 174.0 
211.550156 147.0 
211.680252 205.0 
211.873871 83.0 
212.047134 99635.0 
212.11055 140.0 
212.146988 73.0 
212.184784 81.0 
212.491623 130.0 
212.538864 164.0 
212.652786 235.0 
212.6828 68.0 
212.701218 114.0 
212.757584 70.0 
212.820023 88.0 
212.854675 108.0 
213.005325 864.0 
213.052765 28789.0 
213.289139 174.0 
213.332886 106.0 
213.628387 64.0 
213.957214 105.0 
214.059235 5136.0 
214.131104 80.0 
214.302567 77.0 
214.489853 187.0 
214.678726 175.0 
214.733292 107.0 
214.756866 146.0 
215.033783 11765.0 
215.071152 723.0 
215.168503 56.0 
215.21347 141.0 
215.67749 135.0 
215.73291 187.0 
215.767548 170.0 
216.037109 1475.0 
216.197601 71.0 
216.458893 167.0 
217.019913 473.0 
217.049957 8749.0 
217.087555 1194.0 
217.189026 68.0 
217.343536 142.0 
217.361755 155.0 
217.999207 201.0 
218.051636 464.0 
218.574127 272.0 
218.710159 112.0 
221.030838 164.0 
221.113953 251.0 
222.528397 50.0 
222.578629 198.0 
222.874252 78.0 
223.047882 371.0 
224.526184 207.0 
225.051346 338.0 
225.887451 63.0 
226.055649 386.0 
227.005569 120.0 
227.030319 155.0 
227.071808 1747.0 
227.288528 77.0 
227.460739 76.0 
227.578674 75.0 
228.000153 247.0 
228.044098 5942.0 
228.076019 980.0 
228.138 132.0 
228.269119 83.0 
228.544098 114.0 
228.81192 132.0 
229.049774 48039.0 
229.18158 161.0 
229.219879 222.0 
229.276337 89.0 
229.310822 286.0 
229.540512 201.0 
229.577621 53.0 
229.679901 311.0 
229.704971 243.0 
229.761871 62.0 
229.854919 248.0 
229.989899 818.0 
230.058121 210195.0 
230.148361 230.0 
230.29628 167.0 
230.357697 83.0 
230.547195 76.0 
230.684311 119.0 
230.720001 117.0 
230.988571 93.0 
231.061371 23354.0 
231.149445 64.0 
231.247925 84.0 
231.516342 130.0 
231.854233 181.0 
232.07431 274.0 
232.191086 96.0 
232.310074 70.0 
232.482727 64.0 
232.555649 215.0 
232.597458 125.0 
232.67244 191.0 
232.709595 313.0 
232.737671 138.0 
233.046356 348.0 
233.742065 75.0 
234.046112 158.0 
237.081345 247.0 
237.853638 247.0 
238.391953 194.0 
239.016327 132.0 
240.041 2927.0 
240.812714 88.0 
240.851669 124.0 
241.050354 6319.0 
242.055923 1335.0 
243.034637 1164.0 
243.070206 2305.0 
243.11026 152.0 
243.371353 223.0 
244.037811 2812.0 
244.553787 115.0 
244.758636 57.0 
244.802979 55.0 
245.079926 4577.0 
245.337234 54.0 
246.045197 100.0 
246.087555 303.0 
246.134888 100.0 
249.081512 134.0 
249.314133 275.0 
249.378403 306.0 
252.201553 197.0 
253.458542 173.0 
253.560013 323.0 
254.007004 57.0 
254.061615 386.0 
255.067856 2970.0 
255.224976 51.0 
255.605148 136.0 
256.027344 310.0 
256.07077 307.0 
256.620209 81.0 
257.045441 3295.0 
257.155731 57.0 
257.360901 219.0 
257.956543 218.0 
257.979218 241.0 
258.052429 53983.0 
258.162109 66.0 
258.296661 175.0 
258.514343 270.0 
258.743866 56.0 
258.823059 110.0 
259.056549 7707.0 
259.275238 59.0 
259.681854 136.0 
260.069519 269.0 
260.625183 68.0 
261.018951 93.0 
266.090485 54.0 
267.321808 299.0 
268.200989 317.0 
269.044525 278.0 
269.675446 126.0 
269.903687 91.0 
270.255554 55.0 
271.065704 2045.0 
271.136566 87.0 
271.185364 86.0 
271.285675 90.0 
271.332275 133.0 
271.526917 105.0 
271.792236 247.0 
271.894684 368.0 
272.065704 770.0 
272.239624 374.0 
272.335724 114.0 
272.440491 236.0 
272.542572 118.0 
272.607635 200.0 
272.752167 241.0 
272.792358 634.0 
272.869202 539.0 
272.905396 67.0 
272.934357 126.0 
272.992462 1168.0 
273.076569 551783.0 
273.130585 350.0 
273.215332 114.0 
273.245544 206.0 
273.275635 625.0 
273.382874 93.0 
273.438782 420.0 
273.562073 279.0 
273.624146 63.0 
273.668884 102.0 
273.694183 132.0 
273.759766 55.0 
273.790253 104.0 
273.841675 65.0 
273.899963 73.0 
273.932037 100.0 
274.079956 46961.0 
274.191132 210.0 
274.288452 199.0 
274.371063 74.0 
274.889496 58.0 
275.055969 77.0 
275.08728 189.0 
275.142609 214.0 
275.214996 94.0 
275.238586 105.0 
275.397125 87.0 
275.596924 88.0 
275.694763 53.0 
275.766998 179.0 
275.822113 195.0 
275.883881 389.0 
275.936859 433.0 
276.044556 359.0 
276.116333 233.0 
276.142578 142.0 
276.199677 257.0 
276.23291 125.0 
276.408386 84.0 
276.456482 104.0 
276.586121 82.0 
276.837097 141.0 
277.382477 92.0 
281.831879 66.0 
282.1651 87.0 
284.229034 61.0 
284.819427 59.0 
284.851501 253.0 
285.126129 128.0 
285.835602 134.0 
286.536316 121.0 
288.432648 55.0 
289.750458 77.0 
289.930603 108.0 
290.069519 68.0 
293.873871 142.0 
310.108765 121.0 
317.995697 119.0 
321.767761 96.0 
365.062286 92.0 
366.053589 136.0 
367.063568 174.0 
407.015808 142.0 
541.025696 110.0 
562.796997 51.0 
815.659607 54.0 
1810.915649 329.0 
1866.029541 149.0 
1924.286377 232.0 
1931.486206 84.0 
1967.755615 173.0 
1972.832153 104.0 
END IONS

BEGIN IONS
TITLE=Scan Number: 303
PEPMASS=461.26001
CHARGE=1+
MSLEVEL=2
FILENAME=G3_GG3_01_2823.mzXML
INSTRUMENT=ion trap
SCANS=303
SMILES=CC(=O)N(O)CCCCCNC(=O)CCC(=O)N(O)CCCCCNC(=O)CCC(O)=O
INCHIKEY=VJQANBSDAGCDJE-UHFFFAOYSA-N
70.065239 2617.0 
70.393051 51.0 
70.526772 62.0 
72.044403 616.0 
73.025925 987.0 
75.010239 108.0 
75.998177 296.0 
76.038872 4979.0 
77.094269 149.0 
77.375954 117.0 
78.549957 388.0 
78.589851 213.0 
79.282463 297.0 
82.067192 674.0 
83.044136 160.0 
83.273491 69.0 
83.4795 145.0 
83.864662 163.0 
84.0438 2704.0 
84.080399 18299.0 
84.118637 227.0 
84.49839 56.0 
84.953156 60.0 
85.05835 159.0 
85.087326 5587.0 
86.095032 1560.0 
87.043274 83.0 
87.327927 272.0 
87.818481 58.0 
88.038719 10696.0 
88.675034 92.0 
89.033951 129.0 
89.484924 358.0 
89.828201 83.0 
91.924973 87.0 
92.213158 309.0 
94.298508 153.0 
96.062851 225.0 
98.664413 64.0 
99.055626 101.0 
99.082123 374.0 
100.038849 20069.0 
100.845963 309.0 
101.023964 1482.0 
101.04274 437.0 
101.970078 227.0 
102.020447 164.0 
102.052727 521.0 
102.091049 127074.0 
102.286072 201.0 
102.464096 53.0 
102.575111 79.0 
102.899628 120.0 
103.070694 148.0 
103.095078 6031.0 
103.787918 174.0 
104.092751 131.0 
106.051254 344.0 
107.490005 114.0 
108.770653 352.0 
110.025276 170.0 
110.057137 140.0 
110.093582 182.0 
111.749496 334.0 
111.959 63.0 
112.039536 7360.0 
112.075569 276.0 
112.110825 162.0 
112.412834 149.0 
112.698669 180.0 
113.041161 200.0 
113.825745 89.0 
114.288963 286.0 
115.0494 184.0 
116.035484 3039.0 
117.126068 128.0 
118.060822 302.0 
119.048294 109.0 
119.117348 1420.0 
120.080093 875.0 
120.812035 187.0 
120.867203 399.0 
122.065712 273.0 
122.095848 640.0 
122.154495 117.0 
122.789047 215.0 
123.101318 167.0 
124.073761 140.0 
125.895638 223.0 
126.058762 214.0 
126.089066 217.0 
128.032043 931.0 
128.108597 232.0 
129.274063 255.0 
130.047012 702.0 
130.098328 128.0 
131.847687 119.0 
132.064224 247.0 
133.052811 227.0 
133.904129 107.0 
136.063568 165.0 
136.753357 258.0 
137.105743 4022.0 
137.673904 54.0 
138.055023 448.0 
138.090485 6645.0 
138.498688 94.0 
138.917007 91.0 
139.06282 221.0 
139.094513 796.0 
140.06987 3965.0 
140.102005 303.0 
140.125092 104.0 
140.316544 59.0 
141.064758 236.0 
141.097824 54.0 
142.073822 98.0 
143.123306 249.0 
143.604721 84.0 
143.879456 83.0 
144.025726 118.0 
144.101456 109170.0 
144.16304 271.0 
144.244034 246.0 
144.384766 110.0 
144.572891 93.0 
144.685959 100.0 
144.945999 66.0 
145.104935 6348.0 
146.275131 157.0 
146.308746 83.0 
146.520248 87.0 
147.358231 306.0 
148.07518 806.0 
148.681549 67.0 
149.076996 306.0 
149.10141 260.0 
150.611496 329.0 
152.072998 153.0 
153.101807 214.0 
154.085999 10503.0 
154.137024 143.0 
155.091599 888.0 
155.43219 289.0 
155.593292 72.0 
155.797256 140.0 
156.104294 541.0 
156.895828 82.0 
157.60556 149.0 
161.127045 626.0 
161.355759 214.0 
162.208801 328.0 
163.114456 186.0 
164.705505 95.0 
165.102295 13007.0 
165.427048 71.0 
165.743668 57.0 
166.083893 1212.0 
166.102859 948.0 
166.887924 105.0 
167.104782 315.0 
167.170609 259.0 
167.21283 77.0 
168.101624 4952.0 
168.145676 180.0 
169.00943 191.0 
169.106354 637.0 
172.095322 306.0 
174.460052 89.0 
179.12085 145.0 
180.495636 214.0 
183.113327 4081.0 
184.09613 5054.0 
185.09787 625.0 
185.471863 214.0 
186.111374 203.0 
186.469025 87.0 
187.523315 180.0 
195.293671 158.0 
199.590485 85.0 
200.504929 97.0 
200.555237 70.0 
200.94841 165.0 
201.015533 221.0 
201.123062 135355.0 
201.213318 107.0 
201.235901 123.0 
201.278702 124.0 
201.317245 109.0 
201.376831 48.0 
201.416443 101.0 
201.445572 94.0 
201.498917 145.0 
201.589188 103.0 
201.697372 113.0 
201.750763 94.0 
202.126831 10173.0 
203.120926 76.0 
203.573883 282.0 
203.609299 120.0 
205.094421 276.0 
210.560532 205.0 
211.106293 174.0 
211.273788 51.0 
211.969452 128.0 
215.256836 145.0 
216.03186 260.0 
216.971542 186.0 
219.04805 216.0 
219.133911 34663.0 
219.284149 94.0 
219.82814 59.0 
220.13562 2246.0 
221.122757 110.0 
221.449768 55.0 
221.737717 91.0 
221.777863 165.0 
221.905807 187.0 
223.588898 140.0 
225.125671 359.0 
225.388672 299.0 
229.118134 212.0 
229.51683 50.0 
231.723999 268.0 
232.859711 50.0 
241.642654 72.0 
241.906876 104.0 
241.954926 156.0 
242.236771 116.0 
242.311096 150.0 
242.595627 131.0 
242.614655 190.0 
242.758133 150.0 
242.891602 269.0 
242.944641 300.0 
243.03743 545.0 
243.069122 707.0 
243.133881 277806.0 
243.215118 112.0 
243.244354 185.0 
243.315521 172.0 
243.43718 67.0 
243.462341 86.0 
243.489044 162.0 
243.530899 60.0 
243.74527 294.0 
243.784622 63.0 
243.884094 184.0 
243.913635 254.0 
244.051636 243.0 
244.136581 19198.0 
244.566177 102.0 
244.827362 58.0 
245.139954 934.0 
245.475739 115.0 
245.60881 118.0 
245.652054 140.0 
245.696625 53.0 
245.891129 157.0 
245.949585 149.0 
246.013184 101.0 
246.067993 110.0 
246.150436 71.0 
247.686539 76.0 
248.063309 187.0 
248.176407 101.0 
248.774704 90.0 
249.696503 87.0 
255.668503 74.0 
258.462494 103.0 
258.76416 90.0 
261.29776 133.0 
283.083496 145.0 
283.126282 4652.0 
283.432404 147.0 
284.129333 268.0 
299.377075 106.0 
300.516754 66.0 
301.042908 261.0 
301.080566 335.0 
301.139954 25349.0 
301.259064 231.0 
301.961914 165.0 
302.142883 4259.0 
303.023315 121.0 
318.153564 145.0 
361.248657 193.0 
401.239288 204.0 
402.246277 130.0 
419.254639 139.0 
443.245178 939.0 
461.205566 578.0 
461.263031 6681.0 
461.332764 104.0 
461.449677 290.0 
462.261841 1362.0 
462.912201 50.0 
463.00943 60.0 
463.328827 95.0 
558.215149 139.0 
995.957031 124.0 
1232.360474 221.0 
1236.321289 63.0 
1348.096802 130.0 
1451.380249 222.0 
1471.265259 337.0 
1590.981567 208.0 
1601.69751 198.0 
1626.649292 167.0 
1652.187988 251.0 
1691.189331 130.0 
1718.789062 301.0 
1732.876099 228.0 
1751.874268 225.0 
1787.900024 314.0 
1788.158691 74.0 
1795.306763 178.0 
1818.143677 175.0 
1836.101074 146.0 
1846.351318 376.0 
1846.715454 356.0 
1854.418701 295.0 
1869.132568 64.0 
1871.051025 145.0 
1979.022705 138.0 
END IONS

BEGIN IONS
TITLE=Scan Number: 304
PEPMASS=443.24899
CHARGE=1+
MSLEVEL=2
FILENAME=G3_GG3_01_2823.mzXML
INSTRUMENT=ion trap
SCANS=304
SMILES=CC(=O)N(O)CCCCCNC(=O)CCC(=O)N(O)CCCCCNC(=O)CCC(O)=O
INCHIKEY=VJQANBSDAGCDJE-UHFFFAOYSA-N
72.048325 249.0 
76.029312 101.0 
82.866837 119.0 
84.045074 670.0 
84.080696 143.0 
85.08709 108.0 
94.6735 271.0 
100.041985 754.0 
100.115196 193.0 
101.75312 129.0 
102.090691 3241.0 
102.506042 128.0 
112.03804 307.0 
118.064011 133.0 
120.044113 281.0 
137.098999 352.0 
139.051331 184.0 
143.571793 146.0 
144.100357 3799.0 
145.105591 488.0 
154.087387 837.0 
165.101212 966.0 
166.087891 274.0 
168.105759 139.0 
184.096802 183.0 
201.122818 4963.0 
202.122971 639.0 
225.105087 268.0 
230.132263 159.0 
239.048203 165.0 
243.019516 150.0 
243.134476 11164.0 
244.007172 174.0 
244.134705 777.0 
283.13266 1987.0 
304.138611 226.0 
443.241974 399.0 
444.184143 96.0 
444.231293 129.0 
1935.342163 174.0 
1990.35022 194.0 
END IONS

BEGIN IONS
TITLE=Scan Number: 306
PEPMASS=483.242
CHARGE=1+
MSLEVEL=2
FILENAME=G3_GG3_01_2823.mzXML
INSTRUMENT=ion trap
SCANS=306
SMILES=CC(=O)N(O)CCCCCNC(=O)CCC(=O)N(O)CCCCCNC(=O)CCC(O)=O
INCHIKEY=VJQANBSDAGCDJE-UHFFFAOYSA-N
70.964638 268.0 
84.078339 237.0 
96.019707 187.0 
96.078537 289.0 
102.091774 236.0 
102.776291 196.0 
110.017258 180.0 
123.000984 385.0 
123.088684 132.0 
124.088478 163.0 
136.073212 227.0 
144.105835 138.0 
153.06366 158.0 
164.104233 488.0 
166.048019 348.0 
167.052856 189.0 
172.045715 162.0 
179.101578 91.0 
180.061707 166.0 
181.060272 141.0 
183.109634 4402.0 
183.661087 96.0 
184.110504 189.0 
194.078522 149.0 
195.085846 503.0 
196.047806 161.0 
196.097473 157.0 
197.111938 137.0 
198.092102 140.0 
200.092941 290.0 
205.097412 152.0 
208.094803 184.0 
210.099182 747.0 
215.125931 202.0 
218.092682 86.0 
221.125717 433.0 
222.851212 135.0 
223.104187 1591.0 
224.131256 175.0 
225.102219 169.0 
225.13446 301.0 
225.163315 186.0 
229.084106 140.0 
236.134811 179.0 
237.146194 107.0 
238.129501 218.0 
240.129028 276.0 
241.111633 307.0 
243.126205 143.0 
251.13652 172.0 
252.124054 103.0 
253.113647 150.0 
262.076202 121.0 
265.120209 367.0 
265.155792 283.0 
277.459015 171.0 
279.115784 450.0 
283.07547 193.0 
283.125153 5569.0 
284.127167 347.0 
285.11319 200.0 
293.909882 130.0 
294.138306 130.0 
295.181396 423.0 
300.111847 117.0 
300.276215 107.0 
300.457336 189.0 
301.124603 173.0 
308.195862 225.0 
309.173615 88.0 
320.052399 142.0 
323.202332 1066.0 
324.218475 463.0 
330.926208 142.0 
333.19046 114.0 
334.091339 197.0 
339.243591 197.0 
351.194092 97.0 
353.160217 329.0 
366.040741 274.0 
366.133789 170.0 
366.166748 555.0 
366.297363 123.0 
368.17688 214.0 
370.900085 236.0 
380.172516 245.0 
380.203796 198.0 
383.16864 341.0 
383.227203 10613.0 
383.426697 99.0 
384.230347 1746.0 
385.10907 191.0 
385.219147 278.0 
398.639435 102.0 
406.19635 257.0 
423.222137 1557.0 
424.219147 621.0 
437.219788 224.0 
441.224518 286.0 
443.18689 175.0 
451.368286 296.0 
461.792877 173.0 
481.250885 98.0 
481.709717 123.0 
482.082977 232.0 
482.243713 125.0 
483.036041 131.0 
483.149994 711.0 
483.242249 46750.0 
483.460815 156.0 
483.555847 220.0 
483.786285 117.0 
483.822968 178.0 
484.133789 190.0 
484.185181 723.0 
484.243103 6419.0 
485.241333 143.0 
487.312225 99.0 
487.361206 84.0 
500.180786 148.0 
503.197266 286.0 
507.198639 142.0 
END IONS

BEGIN IONS
TITLE=Scan Number: 307
PEPMASS=699.45203
CHARGE=1+
MSLEVEL=2
FILENAME=G3_GG3_01_2823.mzXML
INSTRUMENT=ion trap
SCANS=307
SMILES=CC(O)C(CCCCCCCCCCCCCCCCC(O)C(C)OC1OC(CO)C(O)C(O)C1O)OC2OC(CO)C(O)C(O)C2O
INCHIKEY=LJMPEBJKUBHVKR-UHFFFAOYSA-N
70.069901 228.0 
70.123505 90.0 
70.159966 139.0 
70.354492 102.0 
70.588806 92.0 
71.047569 521.0 
71.083115 568.0 
72.089478 224.0 
72.196289 206.0 
72.745178 186.0 
76.032578 286.0 
77.357719 234.0 
78.788269 154.0 
79.047516 360.0 
80.057243 164.0 
80.892776 123.0 
81.031502 133.0 
81.047104 201.0 
81.069237 14251.0 
81.617722 323.0 
82.072433 1330.0 
82.334946 124.0 
83.047897 202.0 
83.085197 13950.0 
83.169052 124.0 
84.075256 348.0 
84.091034 1877.0 
85.027885 5313.0 
85.065941 726.0 
85.100098 2006.0 
85.489151 287.0 
86.031578 684.0 
86.063087 175.0 
86.42527 238.0 
87.040771 197.0 
87.07814 319.0 
88.850952 244.0 
89.117455 236.0 
91.053322 298.0 
91.107002 251.0 
93.068878 1858.0 
94.074402 268.0 
94.971375 188.0 
95.046318 275.0 
95.086029 32540.0 
95.287834 116.0 
95.331345 116.0 
95.399864 208.0 
95.481483 137.0 
96.088905 2956.0 
96.636543 129.0 
97.029823 740.0 
97.067947 570.0 
97.100929 22706.0 
97.238297 153.0 
97.841835 158.0 
98.104195 1877.0 
98.910225 121.0 
99.044556 437.0 
99.079323 758.0 
99.230667 207.0 
100.048866 117.0 
100.60347 135.0 
101.023079 239.0 
101.329727 180.0 
102.185051 171.0 
102.454102 84.0 
103.000496 247.0 
103.047623 378.0 
105.148476 223.0 
105.380516 177.0 
107.08625 3182.0 
108.090347 906.0 
108.993263 222.0 
109.029175 330.0 
109.073082 394.0 
109.101173 27467.0 
110.104385 1827.0 
110.939705 88.0 
110.966103 160.0 
111.079185 697.0 
111.116959 14912.0 
111.305305 154.0 
112.12043 1524.0 
112.8573 105.0 
113.100441 665.0 
113.126167 166.0 
113.318443 83.0 
114.124382 144.0 
114.950867 221.0 
115.039154 360.0 
115.111259 417.0 
115.503181 222.0 
115.890617 196.0 
116.07473 278.0 
116.596481 302.0 
117.050308 502.0 
120.152802 322.0 
121.100639 4950.0 
122.10556 409.0 
123.041985 135.0 
123.116631 15261.0 
123.169441 105.0 
124.11956 1536.0 
125.09536 1245.0 
125.132286 4329.0 
126.11171 256.0 
126.138 98.0 
127.036278 1637.0 
127.113098 1038.0 
129.126892 422.0 
129.954437 210.0 
133.490646 126.0 
133.630219 203.0 
133.671127 112.0 
134.105988 187.0 
135.084702 160.0 
135.116852 7706.0 
136.118896 1005.0 
136.192505 142.0 
136.414841 123.0 
136.697983 237.0 
136.798538 112.0 
137.013519 173.0 
137.132782 11577.0 
137.512711 181.0 
138.056366 151.0 
138.133682 1558.0 
139.111954 361.0 
139.1483 2825.0 
141.128525 316.0 
141.160431 176.0 
141.211624 319.0 
143.144516 267.0 
145.050446 2943.0 
145.157135 194.0 
146.055771 125.0 
147.633591 126.0 
149.132217 6832.0 
149.352737 130.0 
150.137161 929.0 
150.266846 144.0 
150.470306 180.0 
151.148071 6755.0 
152.151245 176.0 
152.257538 257.0 
153.070099 168.0 
153.130188 290.0 
153.161606 1348.0 
153.830704 149.0 
154.132843 245.0 
154.166595 251.0 
155.121658 186.0 
155.144226 1517.0 
155.180328 80.0 
156.146896 182.0 
157.159805 139.0 
158.159195 148.0 
161.130844 141.0 
161.680756 232.0 
162.039886 227.0 
162.485535 123.0 
162.786362 109.0 
163.062408 871.0 
163.147888 5426.0 
163.700516 112.0 
164.149658 305.0 
165.033875 118.0 
165.137344 327.0 
165.166199 3575.0 
165.833176 224.0 
166.165512 462.0 
167.144699 116.0 
167.177872 449.0 
167.22168 96.0 
168.185547 216.0 
168.67334 126.0 
169.160141 1090.0 
169.193634 142.0 
171.178146 134.0 
176.149902 188.0 
177.166275 2731.0 
177.97728 111.0 
178.170731 411.0 
179.093933 219.0 
179.179611 2113.0 
180.103455 121.0 
180.124527 139.0 
180.185913 816.0 
180.548141 144.0 
181.061111 163.0 
181.194077 390.0 
181.455597 247.0 
181.69397 83.0 
182.045456 1845.0 
183.046219 365.0 
183.173309 976.0 
183.210129 169.0 
183.301361 176.0 
183.383469 142.0 
186.109695 168.0 
191.144745 150.0 
191.178558 2180.0 
192.174316 147.0 
193.195847 2339.0 
193.799896 263.0 
194.199478 430.0 
195.175034 293.0 
195.211838 415.0 
196.005707 216.0 
197.190338 1529.0 
197.229675 227.0 
198.19989 371.0 
202.414581 174.0 
204.010681 223.0 
205.196213 1910.0 
205.727203 196.0 
206.231674 102.0 
207.088699 149.0 
207.210571 3874.0 
208.13942 263.0 
208.214478 1037.0 
209.194244 748.0 
209.229309 243.0 
210.189087 156.0 
210.234894 254.0 
211.206406 2448.0 
212.149261 188.0 
212.210342 418.0 
213.18663 216.0 
219.133438 187.0 
219.184906 205.0 
219.211166 1842.0 
219.814499 160.0 
220.212219 226.0 
220.251587 242.0 
221.227005 3323.0 
221.678879 199.0 
221.924347 341.0 
222.232391 247.0 
223.132599 176.0 
223.206528 922.0 
224.209793 71.0 
225.220947 4810.0 
225.643448 185.0 
226.221649 700.0 
227.231445 149.0 
228.584549 221.0 
228.812729 163.0 
229.2155 131.0 
233.223373 2508.0 
234.221207 190.0 
235.243607 1259.0 
236.241455 120.0 
236.514526 222.0 
237.266846 118.0 
237.631393 221.0 
239.137375 109.0 
239.237152 1626.0 
240.23967 474.0 
241.21817 169.0 
241.677795 191.0 
244.086838 155.0 
247.242554 4965.0 
248.24144 671.0 
249.258591 294.0 
250.26384 141.0 
251.23732 997.0 
252.239532 254.0 
253.252914 451.0 
253.555267 117.0 
254.25293 309.0 
261.263641 905.0 
265.253632 1085.0 
266.256805 449.0 
269.206665 166.0 
269.249695 113.0 
277.289368 4754.0 
278.292236 889.0 
279.084229 252.0 
279.273438 447.0 
280.100403 164.0 
280.147583 96.0 
280.280365 162.0 
280.680664 228.0 
281.493896 103.0 
283.266815 291.0 
285.522369 207.0 
287.884186 156.0 
288.183167 288.0 
289.088989 127.0 
291.251923 189.0 
291.293762 176.0 
291.498871 192.0 
293.32135 219.0 
294.319702 357.0 
295.301788 7723.0 
295.380585 162.0 
296.301056 311.0 
297.276215 596.0 
297.936646 144.0 
298.286011 83.0 
302.158813 239.0 
302.278717 266.0 
303.190735 361.0 
303.305786 31754.0 
304.308838 5448.0 
305.305939 203.0 
306.191101 154.0 
306.532745 108.0 
309.131561 102.0 
309.314606 459.0 
309.929535 114.0 
310.309601 83.0 
311.318237 141.0 
312.337494 131.0 
313.312347 712.0 
314.315216 398.0 
315.262817 213.0 
317.463287 369.0 
319.801056 136.0 
319.842926 92.0 
320.329834 177.0 
320.374329 223.0 
320.915131 123.0 
321.109711 91.0 
321.315887 56233.0 
322.320953 8005.0 
322.440399 127.0 
322.639465 248.0 
323.322052 685.0 
323.988434 319.0 
324.164276 86.0 
325.116211 441.0 
329.113617 225.0 
333.38681 99.0 
333.665588 96.0 
334.161041 160.0 
335.765991 210.0 
336.052307 170.0 
336.709564 143.0 
336.871582 263.0 
337.141937 191.0 
337.315948 125.0 
337.527283 101.0 
337.659607 106.0 
337.906982 100.0 
338.110596 272.0 
338.208679 141.0 
338.278107 143.0 
338.315765 979.0 
338.464966 211.0 
338.754791 124.0 
338.852173 117.0 
338.886414 214.0 
338.91037 268.0 
339.254547 1504.0 
339.327118 177736.0 
339.395721 541.0 
339.49823 396.0 
339.581818 119.0 
339.646606 149.0 
339.681885 248.0 
339.814117 86.0 
339.889771 143.0 
340.098755 155.0 
340.257751 161.0 
340.329987 31820.0 
340.7388 119.0 
340.838287 107.0 
340.901794 192.0 
340.997528 206.0 
341.075439 82.0 
341.33194 1614.0 
342.521149 98.0 
342.638153 94.0 
353.304596 218.0 
354.306183 202.0 
355.321686 110.0 
356.359619 324.0 
356.706726 205.0 
357.337952 10087.0 
358.225067 107.0 
358.30957 120.0 
358.342438 830.0 
366.300354 99.0 
368.801575 138.0 
370.949371 110.0 
371.231598 229.0 
372.280426 216.0 
372.662262 85.0 
373.378601 109.0 
373.410645 113.0 
373.96402 153.0 
374.425842 184.0 
374.511322 100.0 
374.683044 138.0 
374.754395 137.0 
374.836853 270.0 
375.14679 187.0 
375.348846 83738.0 
375.613159 100.0 
375.666931 96.0 
375.915588 144.0 
376.2052 80.0 
376.351288 13863.0 
376.451324 221.0 
376.548767 177.0 
377.352356 840.0 
378.66748 117.0 
381.853699 168.0 
407.328583 118.0 
408.339233 99.0 
414.358948 144.0 
448.325378 118.0 
464.376007 111.0 
465.368134 318.0 
466.359467 151.0 
492.40033 144.0 
500.42569 209.0 
501.409668 594.0 
503.350708 84.0 
504.429108 89.0 
518.403625 548.0 
519.393677 285.0 
519.459412 194.0 
536.366394 176.0 
536.418701 1776.0 
537.42511 2117.0 
538.319031 105.0 
538.398621 458.0 
539.410706 211.0 
557.309204 127.0 
628.420898 188.0 
699.352112 176.0 
699.462219 397.0 
700.437439 1997.0 
701.344788 136.0 
701.448303 125.0 
702.19342 157.0 
1613.575928 304.0 
1616.315796 289.0 
1682.118408 352.0 
1690.261597 189.0 
1915.213745 336.0 
1942.829102 158.0 
END IONS

BEGIN IONS
TITLE=Scan Number: 308
PEPMASS=716.479
CHARGE=1+
MSLEVEL=2
FILENAME=G3_GG3_01_2823.mzXML
INSTRUMENT=ion trap
SCANS=308
SMILES=CC(O)C(CCCCCCCCCCCCCCCCC(O)C(C)OC1OC(CO)C(O)C(O)C1O)OC2OC(CO)C(O)C(O)C2O
INCHIKEY=LJMPEBJKUBHVKR-UHFFFAOYSA-N
70.07505 118.0 
71.048233 607.0 
71.085297 698.0 
71.339821 121.0 
76.101074 167.0 
81.033997 139.0 
81.069633 2258.0 
82.538612 84.0 
83.06382 267.0 
83.084373 2061.0 
83.183266 125.0 
85.02919 496.0 
85.063934 336.0 
85.099892 876.0 
85.535683 360.0 
86.030487 426.0 
86.067841 161.0 
93.070755 577.0 
95.086121 6536.0 
96.028709 122.0 
96.089531 219.0 
97.027878 359.0 
97.069572 169.0 
97.101372 6369.0 
98.103867 695.0 
99.04393 189.0 
107.084671 1174.0 
109.029655 409.0 
109.100861 5696.0 
110.099937 398.0 
111.081055 199.0 
111.098724 318.0 
111.117851 3188.0 
112.083801 153.0 
113.094208 264.0 
113.128746 150.0 
121.102638 1358.0 
122.101158 160.0 
123.117775 3848.0 
123.747269 97.0 
124.121338 346.0 
125.13221 523.0 
127.033714 249.0 
127.115883 131.0 
129.063553 133.0 
135.114777 1158.0 
136.102158 215.0 
137.132034 1056.0 
138.136261 389.0 
139.147598 120.0 
139.495956 134.0 
141.128311 698.0 
145.046448 115.0 
149.065201 200.0 
149.133972 1173.0 
151.052734 151.0 
151.087082 489.0 
151.149567 1604.0 
155.140686 147.0 
157.161194 135.0 
163.059891 279.0 
163.147629 902.0 
164.148758 136.0 
165.165085 2024.0 
165.226257 269.0 
167.154114 227.0 
167.687424 130.0 
173.118286 249.0 
177.00499 170.0 
177.123032 151.0 
177.165543 377.0 
179.044144 289.0 
179.117859 195.0 
179.154495 137.0 
179.180984 516.0 
180.179459 211.0 
181.193848 147.0 
183.165787 175.0 
184.060822 184.0 
184.176941 163.0 
185.864578 205.0 
191.17926 261.0 
192.48793 186.0 
193.195587 892.0 
195.018845 160.0 
196.861084 204.0 
197.029282 132.0 
197.054611 137.0 
198.139984 371.0 
199.054199 175.0 
200.711136 360.0 
201.152267 531.0 
203.15712 290.0 
203.493729 81.0 
205.19397 334.0 
205.578018 134.0 
207.152161 1111.0 
207.212051 779.0 
207.654434 198.0 
208.206558 185.0 
209.648209 377.0 
211.203369 504.0 
213.178467 189.0 
213.218933 183.0 
216.158081 2321.0 
216.660004 1470.0 
218.039383 122.0 
219.208923 606.0 
221.225662 496.0 
223.202408 306.0 
225.159424 1219.0 
225.219193 677.0 
226.228821 319.0 
227.201706 205.0 
233.221542 331.0 
234.237137 180.0 
237.131729 283.0 
237.159409 434.0 
239.076767 140.0 
239.236801 637.0 
240.240219 154.0 
247.242126 540.0 
248.249466 408.0 
251.237457 231.0 
252.264053 171.0 
253.251785 360.0 
261.269012 305.0 
263.276154 447.0 
266.25882 174.0 
276.160004 127.0 
276.774139 209.0 
277.292358 1297.0 
278.288055 178.0 
279.170563 434.0 
279.281464 109.0 
281.177734 290.0 
288.180542 4772.0 
288.676971 911.0 
294.519257 195.0 
295.204254 282.0 
295.298157 1349.0 
296.307343 145.0 
297.184204 1278.0 
297.285645 111.0 
297.677368 324.0 
298.189941 252.0 
302.978577 101.0 
303.216736 266.0 
303.307434 8472.0 
303.457947 83.0 
304.309235 1671.0 
306.808258 154.0 
308.697327 160.0 
319.495514 107.0 
319.901001 178.0 
321.035767 346.0 
321.316376 11340.0 
322.264832 188.0 
322.321747 1649.0 
325.125061 161.0 
327.220551 122.0 
335.928864 86.0 
336.320526 113.0 
336.709991 150.0 
337.633545 101.0 
337.672882 124.0 
338.339783 106.0 
338.402954 244.0 
339.216339 151.0 
339.327393 39037.0 
339.693817 98.0 
339.74411 276.0 
339.790192 173.0 
340.059143 136.0 
340.116852 196.0 
340.249542 258.0 
340.329834 7247.0 
340.735931 122.0 
341.342682 323.0 
342.4422 88.0 
342.598114 120.0 
342.627747 149.0 
343.597961 83.0 
343.655334 90.0 
350.307098 151.0 
353.19696 93.0 
356.359985 258.0 
357.33847 2777.0 
358.343109 262.0 
359.343048 163.0 
369.203339 5835.0 
369.70462 1140.0 
372.250092 102.0 
375.08606 290.0 
375.237091 147.0 
375.34845 27149.0 
375.848145 127.0 
376.124634 97.0 
376.352692 5002.0 
377.199829 208.0 
377.245911 128.0 
377.345673 228.0 
395.281128 119.0 
408.040161 111.0 
412.288605 163.0 
414.311127 120.0 
445.267578 176.0 
447.343109 139.0 
471.281433 89.0 
477.370941 148.0 
479.533447 144.0 
483.391937 178.0 
496.281219 157.0 
496.379852 110.0 
498.296051 108.0 
501.398468 224.0 
510.382782 96.0 
531.346436 391.0 
535.326538 169.0 
535.390137 128.0 
536.432495 163.0 
537.399719 1457.0 
538.408447 551.0 
553.41394 240.0 
554.37262 109.0 
555.396667 618.0 
555.562073 253.0 
573.287415 182.0 
613.397278 130.0 
637.425537 259.0 
657.450378 192.0 
658.438416 151.0 
699.43335 180.0 
716.362061 259.0 
716.458191 586.0 
717.438354 627.0 
717.521484 213.0 
718.276794 83.0 
718.354431 310.0 
718.436035 2072.0 
718.932068 495.0 
719.487488 148.0 
738.403503 211.0 
1295.295654 235.0 
END IONS

BEGIN IONS
TITLE=Scan Number: 311
PEPMASS=380.185
CHARGE=1+
MSLEVEL=2
FILENAME=G8_GG8_01_2725.mzXML
INSTRUMENT=ion trap
SCANS=311
SMILES=CC(C)=CCC1=C(O)C2=C(NC3=C(O)C=CC=C3C2=O)C(CC=C(C)C)=C1O
INCHIKEY=GLXYKTASIIUSRC-UHFFFAOYSA-N
71.551666 32.0 
72.052063 324.0 
72.07872 333.0 
72.878517 285.0 
73.249039 174.0 
73.666557 176.0 
78.035728 161.0 
79.914879 158.0 
79.965347 70.0 
80.55851 233.0 
81.094429 215.0 
81.33799 112.0 
81.890182 338.0 
83.535233 110.0 
85.726074 191.0 
87.325401 68.0 
88.027031 279.0 
91.602539 173.0 
92.025444 186.0 
93.93103 268.0 
94.897934 138.0 
95.349594 230.0 
98.518036 219.0 
99.179703 250.0 
99.879395 222.0 
100.723534 203.0 
103.438683 168.0 
104.30838 224.0 
105.742905 201.0 
105.825211 176.0 
105.887085 327.0 
105.990616 212.0 
106.032005 206.0 
107.415855 303.0 
108.18251 369.0 
110.280632 181.0 
112.702545 153.0 
114.649185 49.0 
115.051437 271.0 
115.193855 26.0 
115.233917 343.0 
115.246193 409.0 
115.702576 193.0 
116.51265 244.0 
117.212761 210.0 
117.336884 229.0 
117.491982 158.0 
118.016632 153.0 
118.030006 187.0 
119.478149 72.0 
120.03949 49.0 
121.560181 102.0 
122.669563 240.0 
123.570694 288.0 
124.087372 84.0 
127.008705 66.0 
127.236214 298.0 
128.06395 395.0 
129.048401 143.0 
129.069321 1605.0 
129.136917 209.0 
129.423965 198.0 
130.062378 302.0 
130.960815 75.0 
131.062729 131.0 
132.046066 101.0 
133.061203 312.0 
133.69783 280.0 
134.057358 187.0 
135.415497 160.0 
135.96254 223.0 
137.369629 118.0 
137.391708 238.0 
138.236359 164.0 
138.674545 306.0 
138.842026 268.0 
139.053696 1247.0 
139.949081 190.0 
140.046982 1211.0 
142.064209 454.0 
142.383728 207.0 
144.043381 216.0 
144.084702 342.0 
144.393463 182.0 
145.05011 159.0 
146.026596 413.0 
146.060394 7278.0 
146.606506 151.0 
147.029938 134.0 
147.061523 1047.0 
147.886475 139.0 
148.724838 203.0 
148.877502 343.0 
149.069855 294.0 
150.722763 106.0 
150.83754 235.0 
151.138428 240.0 
151.921799 296.0 
152.041122 40.0 
152.358246 246.0 
153.402863 196.0 
153.919159 74.0 
153.94072 284.0 
154.067322 712.0 
154.295944 420.0 
155.051086 80.0 
155.074875 442.0 
155.539398 109.0 
156.041031 212.0 
156.081863 8673.0 
156.69574 50.0 
157.08606 304.0 
157.161041 237.0 
158.059769 1332.0 
158.329422 210.0 
159.062012 805.0 
160.246231 274.0 
161.15535 178.0 
161.640503 277.0 
162.049484 208.0 
162.64386 229.0 
163.366287 54.0 
163.412949 324.0 
163.672882 160.0 
163.739258 137.0 
164.037491 148.0 
164.730194 28.0 
164.780167 177.0 
165.413742 127.0 
166.02211 76.0 
166.065506 3376.0 
166.154617 271.0 
166.288651 153.0 
167.009903 337.0 
167.070984 1714.0 
167.726868 346.0 
168.049698 766.0 
168.078583 735.0 
168.329498 182.0 
169.047256 874.0 
169.268311 109.0 
169.361313 245.0 
170.059921 1524.0 
170.313995 125.0 
171.048584 236.0 
172.04715 252.0 
172.07666 2199.0 
172.201431 162.0 
173.524979 368.0 
174.098343 78.0 
175.033005 287.0 
175.055908 220.0 
175.079926 120.0 
176.072235 202.0 
177.165741 114.0 
177.391037 247.0 
178.180847 294.0 
178.6828 105.0 
179.313843 226.0 
182.057449 95.0 
182.423294 150.0 
182.911011 194.0 
183.068939 2582.0 
183.690872 140.0 
183.848587 142.0 
184.023483 139.0 
184.076309 24418.0 
185.046082 269.0 
185.078995 1520.0 
185.45401 176.0 
186.011536 268.0 
186.056351 8260.0 
186.297089 150.0 
186.575485 68.0 
186.682068 68.0 
186.829605 273.0 
186.995956 283.0 
187.062546 743.0 
188.032852 356.0 
188.178726 163.0 
188.483139 153.0 
189.041718 108.0 
189.145432 220.0 
190.047836 182.0 
192.081924 227.0 
193.053543 95.0 
193.341507 412.0 
193.408829 263.0 
194.020828 269.0 
194.060974 6031.0 
194.100464 332.0 
195.068878 907.0 
196.039795 71.0 
196.073166 963.0 
196.540573 54.0 
196.998779 182.0 
197.04425 368.0 
197.662476 273.0 
197.83136 153.0 
198.057785 815.0 
198.094467 43.0 
199.061554 715.0 
200.067871 1190.0 
200.629379 154.0 
200.786163 167.0 
201.071335 152.0 
201.130615 216.0 
201.765488 135.0 
202.05043 429.0 
202.189835 199.0 
202.637115 188.0 
202.99649 165.0 
203.373001 113.0 
204.065613 95.0 
204.565353 279.0 
204.972275 215.0 
206.549683 349.0 
206.834335 118.0 
207.430679 177.0 
207.746979 274.0 
208.071899 135.0 
210.053192 387.0 
210.811417 137.0 
211.062057 954.0 
211.304443 560.0 
211.529221 287.0 
212.07135 39063.0 
212.138504 137.0 
212.987137 190.0 
213.002777 183.0 
213.074448 5125.0 
214.050064 20037.0 
214.291595 353.0 
214.595749 277.0 
214.62291 81.0 
214.719376 131.0 
215.018784 189.0 
215.061417 1479.0 
215.467758 176.0 
215.631729 109.0 
216.030914 186.0 
216.066757 264.0 
216.788177 79.0 
217.241898 347.0 
218.826599 147.0 
219.457504 272.0 
219.59671 124.0 
221.545731 56.0 
222.05571 4074.0 
222.419785 43.0 
223.065506 638.0 
223.245911 147.0 
224.072906 499.0 
224.416702 26.0 
224.58165 44.0 
225.043091 1074.0 
225.079514 672.0 
225.294022 304.0 
225.769135 26.0 
226.025925 252.0 
226.085632 1079.0 
226.771759 56.0 
227.061035 113.0 
228.06572 2543.0 
229.072311 477.0 
229.427261 244.0 
230.03093 250.0 
230.518234 77.0 
230.982666 335.0 
231.330734 194.0 
232.06279 239.0 
232.323914 296.0 
232.492355 111.0 
232.555237 328.0 
232.721207 329.0 
232.843689 278.0 
233.070297 188.0 
234.085709 123.0 
234.5914 197.0 
234.713791 298.0 
235.061279 95.0 
235.265656 336.0 
236.071533 260.0 
236.141739 89.0 
237.035294 181.0 
237.647919 161.0 
238.049393 1347.0 
238.417633 120.0 
238.514069 46.0 
238.892059 136.0 
238.947983 154.0 
239.052536 1139.0 
239.10997 148.0 
239.147369 367.0 
239.347397 122.0 
239.449783 177.0 
239.479477 192.0 
239.592957 173.0 
239.670364 148.0 
239.748352 115.0 
239.872116 29.0 
239.925385 646.0 
240.06636 174513.0 
240.135834 528.0 
240.189758 163.0 
240.266113 162.0 
240.300415 167.0 
240.576599 29.0 
240.614029 67.0 
240.711975 84.0 
240.750839 240.0 
240.949127 29.0 
240.985519 304.0 
241.069244 24048.0 
241.267624 57.0 
241.475037 205.0 
241.630203 122.0 
242.042252 855.0 
242.074966 2018.0 
242.268356 34.0 
242.630234 50.0 
242.776993 147.0 
242.838409 299.0 
242.929779 131.0 
242.957764 112.0 
243.052475 196.0 
243.093231 458.0 
244.963074 72.0 
245.366043 178.0 
246.083176 135.0 
247.39827 204.0 
248.060074 28.0 
248.222916 115.0 
248.338211 127.0 
248.855621 258.0 
248.882645 176.0 
249.008408 131.0 
249.865845 232.0 
250.051697 2098.0 
251.056244 833.0 
251.986038 37.0 
252.03923 172.0 
252.065582 523.0 
252.104156 80.0 
252.322311 209.0 
252.596497 250.0 
252.994919 273.0 
253.037216 752.0 
253.220703 55.0 
253.260925 183.0 
253.593933 239.0 
254.080429 1922.0 
254.139191 250.0 
254.210068 277.0 
254.653183 418.0 
255.077606 303.0 
255.555298 109.0 
255.610321 72.0 
256.06189 12258.0 
257.065369 800.0 
257.355225 37.0 
258.07608 213.0 
258.853729 120.0 
259.708069 247.0 
260.308014 229.0 
260.374268 177.0 
261.018036 40.0 
262.288849 107.0 
262.403107 180.0 
263.059174 145.0 
263.090729 136.0 
263.621979 188.0 
264.066986 524.0 
264.136932 359.0 
264.684723 80.0 
265.070099 204.0 
265.10968 223.0 
265.205322 244.0 
266.057434 217.0 
266.086578 146.0 
266.287933 73.0 
266.333588 28.0 
266.354156 54.0 
266.476532 71.0 
266.675903 167.0 
266.834076 125.0 
266.905975 102.0 
266.931152 399.0 
266.980103 242.0 
267.011597 123.0 
267.054565 1017.0 
267.091705 208.0 
267.121826 487.0 
267.141998 411.0 
267.185425 116.0 
267.23288 640.0 
267.263336 237.0 
267.298706 366.0 
267.33609 246.0 
267.372803 41.0 
267.447998 242.0 
267.486206 319.0 
267.528717 226.0 
267.547272 233.0 
267.569031 255.0 
267.613556 377.0 
267.674683 117.0 
267.705719 302.0 
267.747162 456.0 
267.774902 94.0 
267.819824 661.0 
267.848053 276.0 
267.912811 900.0 
268.061859 1320256.0 
268.138824 400.0 
268.162811 429.0 
268.185028 506.0 
268.278076 442.0 
268.315918 793.0 
268.355499 139.0 
268.389557 240.0 
268.434509 189.0 
268.45517 238.0 
268.482147 535.0 
268.536987 321.0 
268.59787 379.0 
268.61908 306.0 
268.662537 196.0 
268.736084 485.0 
268.797241 235.0 
268.835693 175.0 
268.885345 201.0 
268.91803 470.0 
268.956085 26.0 
269.065063 178964.0 
269.135284 351.0 
269.243103 80.0 
269.310669 105.0 
269.332855 111.0 
269.443359 360.0 
269.513275 192.0 
269.575653 127.0 
269.634766 262.0 
269.691589 98.0 
269.734436 26.0 
269.807953 186.0 
269.876007 94.0 
269.931549 181.0 
269.973358 150.0 
270.026093 228.0 
270.068268 7020.0 
270.152435 162.0 
270.286011 80.0 
270.330841 111.0 
270.393921 73.0 
270.469177 54.0 
270.500793 174.0 
270.535217 124.0 
270.600464 214.0 
270.640808 167.0 
270.710785 95.0 
270.798492 437.0 
270.817108 453.0 
270.877045 267.0 
270.945679 121.0 
270.973145 102.0 
271.012451 130.0 
271.070312 454.0 
271.122101 443.0 
271.178802 155.0 
271.358856 95.0 
271.411438 100.0 
271.560394 167.0 
271.610809 174.0 
271.666077 137.0 
271.890167 98.0 
272.047119 319.0 
272.209747 113.0 
272.715057 264.0 
272.896881 77.0 
273.273834 54.0 
273.951294 139.0 
274.345428 31.0 
274.850525 92.0 
274.888123 140.0 
275.028137 100.0 
275.535461 239.0 
276.446472 39.0 
276.51062 33.0 
277.699799 77.0 
277.981476 71.0 
278.090942 300.0 
278.602875 27.0 
278.755188 58.0 
278.853882 30.0 
278.900116 211.0 
278.9263 68.0 
279.53421 28.0 
279.617188 41.0 
279.936981 45.0 
280.017456 97.0 
280.06601 3215.0 
280.22113 132.0 
280.261719 66.0 
280.350952 87.0 
280.575348 27.0 
281.059937 1102.0 
281.530121 76.0 
281.765961 42.0 
281.972504 86.0 
282.079468 5780.0 
282.256775 71.0 
282.311371 30.0 
282.993744 70.0 
283.082031 1208.0 
283.639221 35.0 
283.739136 84.0 
284.082245 154.0 
284.375549 44.0 
284.539703 56.0 
284.588715 72.0 
284.744202 60.0 
284.826813 99.0 
284.875153 86.0 
284.978821 99.0 
285.058716 97.0 
285.169373 72.0 
285.427765 58.0 
286.068329 120.0 
288.023529 42.0 
288.530457 46.0 
290.176025 32.0 
291.096558 176.0 
291.410797 220.0 
291.587036 287.0 
292.091095 102.0 
292.70105 158.0 
294.001495 127.0 
294.077087 1215.0 
295.083069 273.0 
296.102539 141.0 
296.127991 172.0 
296.345795 29.0 
298.981171 31.0 
301.782074 72.0 
302.995361 227.0 
303.890869 39.0 
304.022217 87.0 
304.213593 111.0 
305.093964 143.0 
306.115906 706.0 
306.290039 212.0 
306.473694 206.0 
308.095825 131.0 
312.125244 112.0 
312.721558 261.0 
318.836029 56.0 
319.290405 204.0 
320.940491 110.0 
321.389282 68.0 
322.042114 41.0 
322.095917 147.0 
322.746735 27.0 
322.808655 160.0 
322.978943 74.0 
323.046906 270.0 
323.083435 205.0 
323.120026 218.0 
323.160706 173.0 
323.429504 227.0 
323.584869 241.0 
323.606567 209.0 
323.65213 55.0 
323.718933 40.0 
323.776123 44.0 
323.844238 44.0 
323.897522 384.0 
323.930084 429.0 
323.967041 406.0 
324.022369 483.0 
324.124939 283167.0 
324.22226 59.0 
324.271851 86.0 
324.374084 335.0 
324.612366 77.0 
324.954956 149.0 
325.127869 36483.0 
325.188751 138.0 
325.229126 90.0 
325.338104 37.0 
325.403839 132.0 
325.654572 45.0 
325.730988 47.0 
325.773376 51.0 
325.898285 56.0 
326.126892 374.0 
326.199463 100.0 
326.466736 103.0 
326.621643 60.0 
326.699829 59.0 
326.825226 91.0 
326.874329 56.0 
326.978424 152.0 
327.187286 83.0 
327.2341 137.0 
327.320831 44.0 
327.370575 210.0 
327.473541 177.0 
327.519958 150.0 
327.606567 87.0 
327.63623 96.0 
327.824158 46.0 
328.14267 46.0 
328.297058 108.0 
328.345734 87.0 
328.569641 140.0 
332.101501 180.0 
335.998627 28.0 
341.038757 102.0 
341.221405 26.0 
341.656158 29.0 
342.681 159.0 
345.092896 164.0 
345.430756 72.0 
378.668945 76.0 
378.892944 29.0 
380.189941 11735.0 
381.1875 1393.0 
382.030334 136.0 
383.044983 52.0 
525.15033 56.0 
597.216431 61.0 
630.34906 28.0 
659.05957 95.0 
774.624878 61.0 
832.860657 150.0 
916.547302 238.0 
1325.589722 73.0 
1543.319214 44.0 
1900.455322 136.0 
1910.20166 259.0 
1987.911133 158.0 
END IONS

BEGIN IONS
TITLE=Scan Number: 312
PEPMASS=415.138
CHARGE=1+
MSLEVEL=2
FILENAME=G8_GG8_01_2725.mzXML
INSTRUMENT=ion trap
SCANS=312
SMILES=COC1=CC(=CC(OC)=C1OC)[C@H]2[C@@H]3[C@H](COC3=O)[C@@H](O)C4=CC5=C(OCO5)C=C24
INCHIKEY=YJGVMLPVUAXIQN-XVVDYKMHSA-N
75.642174 96.0 
91.05529 216.0 
106.06765 113.0 
107.0513 150.0 
115.054932 973.0 
117.068703 2009.0 
118.019531 120.0 
118.071564 402.0 
121.027519 182.0 
122.037605 218.0 
127.019485 162.0 
127.05294 321.0 
133.07132 197.0 
134.906769 266.0 
134.9841 224.0 
135.046036 1292.0 
136.049881 224.0 
137.059189 129.0 
139.035278 142.0 
143.052124 558.0 
145.065094 4485.0 
146.070343 279.0 
146.813614 177.0 
149.574142 110.0 
150.027435 133.0 
151.041397 123.0 
154.06459 336.0 
155.052811 671.0 
157.315247 84.0 
159.043732 121.0 
161.062119 999.0 
163.06134 175.0 
167.07576 205.0 
169.086227 437.0 
172.044327 320.0 
173.059479 1368.0 
175.076935 1575.0 
181.082886 129.0 
185.060379 3263.0 
186.0616 238.0 
188.046249 432.0 
189.054062 514.0 
192.081314 122.0 
199.04895 555.0 
200.056625 279.0 
201.054962 414.0 
202.081894 256.0 
203.067368 760.0 
204.073364 110.0 
209.063919 164.0 
219.068008 1557.0 
220.069946 125.0 
221.05484 109.0 
221.094971 185.0 
222.068985 434.0 
223.081039 199.0 
229.049805 1410.0 
230.04953 347.0 
231.063675 250.0 
232.080383 116.0 
234.07045 199.0 
235.075668 265.0 
235.106979 74.0 
237.040695 170.0 
237.062363 292.0 
238.067017 305.0 
239.035675 326.0 
239.075943 904.0 
242.085861 297.0 
247.060684 3540.0 
249.731049 91.0 
251.072891 334.0 
253.088608 258.0 
254.061615 150.0 
255.060959 121.0 
261.089386 141.0 
262.071625 263.0 
263.067535 158.0 
265.102264 261.0 
266.087982 217.0 
267.067444 1093.0 
268.088531 262.0 
268.976593 126.0 
275.074921 220.0 
276.083008 169.0 
277.095032 168.0 
281.062653 161.0 
282.089935 3029.0 
283.062195 792.0 
283.1073 331.0 
284.068604 234.0 
284.103668 207.0 
289.087463 333.0 
290.065979 165.0 
291.076324 171.0 
293.080048 278.0 
293.145599 98.0 
296.112213 248.0 
297.075653 510.0 
298.086182 560.0 
299.102295 210.0 
306.050323 213.0 
306.086609 388.0 
306.596008 85.0 
307.094696 764.0 
308.078888 113.0 
309.082397 143.0 
312.100372 589.0 
313.108643 1354.0 
313.169556 227.0 
319.095764 250.0 
320.079437 131.0 
320.105988 556.0 
321.075562 244.0 
321.114594 891.0 
322.110413 447.0 
323.09375 449.0 
325.622437 130.0 
336.095123 159.0 
337.109192 200.0 
341.139954 151.0 
347.095001 165.0 
348.104492 416.0 
349.07428 82.0 
351.127777 843.0 
352.12854 189.0 
355.10791 100.0 
364.090942 85.0 
365.107269 77.0 
366.105927 480.0 
367.103027 162.0 
367.127991 253.0 
369.140411 93.0 
379.119141 672.0 
380.135132 245.0 
382.119812 82.0 
397.064362 204.0 
397.127655 2299.0 
398.132416 185.0 
400.523712 135.0 
413.128204 194.0 
414.183441 103.0 
1848.215088 65.0 
END IONS

BEGIN IONS
TITLE=Scan Number: 313
PEPMASS=397.12701
CHARGE=1+
MSLEVEL=2
FILENAME=G8_GG8_01_2725.mzXML
INSTRUMENT=ion trap
SCANS=313
SMILES=COC1=CC(=CC(OC)=C1OC)[C@H]2[C@@H]3[C@H](COC3=O)[C@@H](O)C4=CC5=C(OCO5)C=C24
INCHIKEY=YJGVMLPVUAXIQN-XVVDYKMHSA-N
78.045029 168.0 
85.020477 130.0 
91.053909 370.0 
94.040627 128.0 
105.046043 239.0 
108.057289 173.0 
109.059998 202.0 
114.5672 154.0 
115.052383 554.0 
117.715927 234.0 
118.072243 180.0 
121.028938 129.0 
121.063736 194.0 
123.331589 121.0 
125.920364 208.0 
127.051682 308.0 
128.060272 468.0 
130.200912 179.0 
131.034332 169.0 
131.782608 214.0 
135.046051 998.0 
136.016754 167.0 
136.043762 291.0 
140.042419 180.0 
143.051056 464.0 
147.028259 149.0 
147.047028 159.0 
148.051971 365.0 
149.02626 406.0 
149.06134 393.0 
151.039597 239.0 
152.047501 125.0 
153.071487 182.0 
153.08551 221.0 
154.041702 145.0 
154.070969 513.0 
155.056137 294.0 
157.060364 444.0 
158.037308 133.0 
159.047592 578.0 
165.074631 780.0 
166.061829 1414.0 
167.07016 198.0 
169.089951 247.0 
172.05983 160.0 
173.061325 403.0 
178.104599 396.0 
179.056625 207.0 
180.041458 354.0 
181.012238 242.0 
181.068268 426.0 
181.088776 1836.0 
182.090408 129.0 
185.026611 216.0 
185.061462 5484.0 
186.069855 716.0 
189.071625 90.0 
191.08139 78.0 
192.05986 180.0 
194.071213 132.0 
194.643555 182.0 
195.062943 145.0 
195.081467 244.0 
196.067459 225.0 
197.052155 169.0 
199.039719 271.0 
201.054871 382.0 
202.048691 147.0 
203.082169 200.0 
206.073135 206.0 
207.058838 186.0 
207.092499 146.0 
208.04747 105.0 
209.060699 488.0 
209.089981 183.0 
210.070587 350.0 
211.081619 196.0 
211.879456 135.0 
212.048553 265.0 
212.210617 127.0 
213.039871 179.0 
215.06308 178.0 
217.070007 140.0 
218.069565 198.0 
219.08725 231.0 
221.064178 680.0 
221.100983 117.0 
221.781158 284.0 
222.066818 560.0 
223.043304 340.0 
223.079742 347.0 
224.047668 824.0 
224.08551 313.0 
225.049408 558.0 
226.069839 256.0 
226.727554 101.0 
227.028961 139.0 
227.074219 212.0 
228.860947 248.0 
229.051834 5450.0 
230.063263 110.0 
231.078659 114.0 
231.106689 253.0 
231.404785 300.0 
232.080811 167.0 
233.061172 351.0 
234.103485 332.0 
235.076355 516.0 
235.112259 309.0 
237.054871 1960.0 
238.062241 1085.0 
239.070343 6053.0 
240.04335 208.0 
240.071594 954.0 
241.079651 190.0 
244.087296 201.0 
245.07933 163.0 
246.060196 273.0 
247.083588 739.0 
247.494644 173.0 
247.995514 87.0 
248.061371 168.0 
249.041061 199.0 
249.085938 783.0 
250.070633 316.0 
250.097778 362.0 
251.034775 175.0 
251.074814 442.0 
252.063568 169.0 
252.091125 127.0 
253.045105 187.0 
254.029114 241.0 
254.066238 480.0 
254.09462 193.0 
255.066299 769.0 
255.099808 367.0 
257.166779 87.0 
259.051697 119.0 
259.083649 797.0 
261.038055 162.0 
261.084045 194.0 
262.015778 93.0 
262.065918 418.0 
263.070984 2270.0 
263.10611 285.0 
264.078003 668.0 
265.092499 934.0 
266.05188 212.0 
266.093109 150.0 
267.067047 9358.0 
267.174011 106.0 
267.458221 115.0 
268.066925 2004.0 
269.059967 302.0 
269.080444 417.0 
269.795685 182.0 
270.087494 182.0 
272.218475 143.0 
273.023987 138.0 
273.093658 143.0 
274.484192 145.0 
275.07312 1483.0 
276.07959 165.0 
276.201752 240.0 
277.087677 1752.0 
278.057526 530.0 
278.100159 124.0 
279.022766 178.0 
279.104706 335.0 
280.069275 324.0 
280.786682 196.0 
281.08136 130.0 
281.988098 248.0 
282.034821 384.0 
282.090088 24905.0 
282.400391 103.0 
283.023834 496.0 
283.062592 3652.0 
283.095032 3393.0 
284.063263 464.0 
284.104218 275.0 
285.117279 170.0 
285.166534 89.0 
289.060944 343.0 
290.016602 170.0 
290.057526 344.0 
290.087677 667.0 
290.136658 248.0 
291.067932 1823.0 
291.102295 1276.0 
292.072021 1122.0 
292.111359 273.0 
293.044891 524.0 
293.079742 522.0 
294.081299 286.0 
294.816254 273.0 
295.092346 177.0 
296.416016 202.0 
297.080505 836.0 
297.133728 294.0 
298.08606 2978.0 
298.993408 179.0 
299.090698 1169.0 
300.088409 217.0 
300.149414 180.0 
300.901428 226.0 
303.068329 306.0 
305.023285 145.0 
305.082916 1884.0 
306.08725 1579.0 
306.276245 181.0 
307.098724 793.0 
307.718445 68.0 
307.821716 156.0 
308.066254 286.0 
308.106018 941.0 
308.261627 141.0 
308.682526 106.0 
309.024475 92.0 
309.092224 463.0 
311.396393 82.0 
312.098755 1080.0 
312.138397 134.0 
312.460297 153.0 
313.111084 16217.0 
313.813538 91.0 
314.079834 153.0 
314.115295 2663.0 
315.06131 185.0 
316.305878 93.0 
317.074585 333.0 
319.059204 463.0 
319.100433 203.0 
320.108246 1535.0 
320.955475 125.0 
321.081238 508.0 
321.114746 1616.0 
321.384979 85.0 
322.087708 477.0 
322.117767 1690.0 
323.0896 457.0 
323.123901 589.0 
324.092346 251.0 
324.128662 129.0 
325.071533 118.0 
325.10083 152.0 
326.065338 159.0 
326.124176 154.0 
333.106354 284.0 
336.059143 115.0 
336.097351 261.0 
337.077362 176.0 
338.070435 85.0 
338.11795 3008.0 
339.131653 1322.0 
339.255798 126.0 
340.127686 243.0 
341.134399 128.0 
341.197754 119.0 
347.054749 171.0 
348.071777 167.0 
348.1026 226.0 
349.074432 129.0 
350.075531 138.0 
350.115295 266.0 
351.087799 212.0 
351.123047 1630.0 
352.093536 165.0 
352.129608 220.0 
353.14035 977.0 
354.108551 134.0 
354.148987 264.0 
355.123749 228.0 
363.089264 91.0 
364.020721 75.0 
364.096527 688.0 
366.113342 790.0 
367.088959 124.0 
370.146027 158.0 
379.112854 942.0 
379.289978 76.0 
380.12384 615.0 
382.105865 322.0 
397.079254 421.0 
397.128448 4888.0 
397.190582 74.0 
397.788025 160.0 
398.138458 187.0 
END IONS

BEGIN IONS
TITLE=Scan Number: 314
PEPMASS=432.16501
CHARGE=1+
MSLEVEL=2
FILENAME=G8_GG8_01_2725.mzXML
INSTRUMENT=ion trap
SCANS=314
SMILES=COC1=CC(=CC(OC)=C1OC)[C@H]2[C@@H]3[C@H](COC3=O)[C@@H](O)C4=CC5=C(OCO5)C=C24
INCHIKEY=YJGVMLPVUAXIQN-XVVDYKMHSA-N
75.04319 226.0 
79.953659 308.0 
85.028954 186.0 
90.49543 239.0 
91.054893 373.0 
103.056961 189.0 
105.070045 705.0 
107.047585 168.0 
110.342041 106.0 
112.294731 209.0 
115.054123 2610.0 
116.061165 212.0 
116.701309 163.0 
117.070389 6463.0 
119.044998 190.0 
121.028618 172.0 
122.039009 1821.0 
123.04174 346.0 
124.838303 255.0 
127.054863 433.0 
128.060883 133.0 
128.089951 138.0 
129.070908 474.0 
130.039398 133.0 
131.050491 1367.0 
132.05658 358.0 
133.067612 1414.0 
134.036057 136.0 
134.069824 354.0 
135.043655 3420.0 
136.047592 338.0 
138.060028 177.0 
139.042343 190.0 
143.04982 3219.0 
144.050339 657.0 
144.559753 184.0 
145.065842 15657.0 
145.564941 163.0 
146.068329 1785.0 
147.041443 176.0 
147.084732 146.0 
148.999313 158.0 
149.514206 226.0 
151.040024 904.0 
152.042542 190.0 
154.063522 383.0 
154.972 284.0 
155.061798 2035.0 
156.048126 319.0 
158.036835 189.0 
159.044968 198.0 
161.058868 1792.0 
162.068039 783.0 
163.041565 78.0 
167.033081 156.0 
169.088943 1052.0 
171.044861 997.0 
171.453766 103.0 
172.554947 130.0 
172.909821 100.0 
173.060699 3905.0 
174.064133 488.0 
174.598251 168.0 
175.038071 206.0 
175.077194 3909.0 
175.18483 85.0 
175.401291 151.0 
176.078857 636.0 
179.034653 192.0 
179.086609 124.0 
180.045135 121.0 
180.947067 220.0 
181.087357 986.0 
182.092697 188.0 
183.708466 230.0 
185.03299 712.0 
185.061523 11591.0 
186.063583 740.0 
187.040283 140.0 
187.073944 250.0 
188.047379 2585.0 
189.054611 4050.0 
190.060715 386.0 
191.070099 109.0 
195.064072 270.0 
196.064926 149.0 
197.060928 175.0 
197.911179 201.0 
199.052124 465.0 
199.441711 301.0 
201.054703 1141.0 
201.310181 215.0 
202.060135 166.0 
203.071472 2777.0 
204.076675 207.0 
205.057281 151.0 
205.091675 153.0 
207.062912 176.0 
211.081314 291.0 
213.03772 155.0 
216.067444 142.0 
217.048721 561.0 
218.078491 362.0 
219.067093 5376.0 
219.426086 224.0 
220.069427 767.0 
221.287857 382.0 
223.095062 117.0 
224.048676 127.0 
226.064514 372.0 
228.739609 134.0 
229.052063 6859.0 
229.121628 221.0 
230.053787 630.0 
231.037247 98.0 
232.077103 461.0 
233.09697 168.0 
234.067551 118.0 
234.107208 148.0 
237.062988 312.0 
238.065887 535.0 
239.069382 2166.0 
240.032364 212.0 
240.07222 293.0 
240.946945 311.0 
241.002808 107.0 
241.087448 129.0 
242.087494 122.0 
244.06102 241.0 
245.990814 101.0 
246.067764 110.0 
247.015564 270.0 
247.061722 22300.0 
248.069977 2238.0 
249.053558 134.0 
249.094284 318.0 
249.891464 173.0 
251.028717 112.0 
251.072418 135.0 
251.353455 111.0 
252.078415 298.0 
253.085831 414.0 
254.056259 440.0 
255.063187 146.0 
256.064575 180.0 
259.07309 256.0 
259.138184 186.0 
261.32489 217.0 
263.069092 176.0 
263.102295 238.0 
264.077789 136.0 
264.111267 119.0 
265.089478 144.0 
267.065338 2602.0 
268.017609 277.0 
268.065216 200.0 
269.076782 682.0 
272.082245 131.0 
274.060211 258.0 
275.068115 849.0 
276.081299 631.0 
277.089722 716.0 
278.094879 441.0 
279.075928 255.0 
282.03125 372.0 
282.090698 6342.0 
283.029297 488.0 
283.063293 1849.0 
283.095642 1712.0 
285.112793 202.0 
285.861755 92.0 
285.972443 163.0 
288.085388 329.0 
289.082825 614.0 
290.040344 132.0 
290.091949 730.0 
291.070435 1029.0 
291.10907 584.0 
292.094208 197.0 
293.079468 544.0 
294.094208 122.0 
296.099457 155.0 
297.050598 268.0 
297.079346 1630.0 
298.084564 4068.0 
299.050323 101.0 
299.088135 429.0 
300.076477 154.0 
302.060608 234.0 
303.066254 116.0 
305.085571 652.0 
305.929657 224.0 
306.090424 2201.0 
307.093567 1193.0 
308.059906 154.0 
308.104919 141.0 
309.105774 205.0 
309.309174 91.0 
311.09314 247.0 
311.917542 255.0 
312.105927 1883.0 
313.014679 130.0 
313.108673 7342.0 
313.34201 159.0 
314.117493 1010.0 
317.046265 188.0 
319.09668 767.0 
320.106018 1571.0 
321.074768 541.0 
321.117188 1394.0 
322.084625 158.0 
322.119476 804.0 
323.097473 697.0 
324.107971 121.0 
325.118225 132.0 
331.065277 289.0 
333.014709 99.0 
333.079773 912.0 
333.117798 306.0 
334.055939 235.0 
335.10321 364.0 
336.101166 363.0 
337.117279 121.0 
338.112823 709.0 
341.064575 89.0 
341.11731 151.0 
347.090942 435.0 
348.097412 496.0 
349.070679 719.0 
351.12674 2589.0 
352.124634 306.0 
353.142395 947.0 
355.123138 278.0 
363.996887 235.0 
364.098663 628.0 
364.154663 119.0 
366.114227 1019.0 
366.169922 109.0 
367.075348 99.0 
367.119934 350.0 
369.135742 420.0 
370.14502 159.0 
377.889008 161.0 
379.120758 1670.0 
379.621948 263.0 
379.986237 271.0 
380.128571 239.0 
382.102478 240.0 
383.109192 336.0 
396.188873 207.0 
396.725677 172.0 
397.130707 20377.0 
397.290833 234.0 
398.136047 3010.0 
398.393005 165.0 
403.572388 105.0 
414.155182 152.0 
431.242859 124.0 
556.233215 87.0 
1432.562866 107.0 
1858.706909 249.0 
END IONS

BEGIN IONS
TITLE=Scan Number: 315
PEPMASS=637.43103
CHARGE=1+
MSLEVEL=2
FILENAME=G8_GG8_01_2725.mzXML
INSTRUMENT=ion trap
SCANS=315
SMILES=CC(CCC(O)C(C)(C)O)C1CCC2(C)C3=C(CC(O)C12C)C4(C)CC(OC(=O)CC(C)(O)CC(O)=O)C(O)C(C)(C)C4CC3
INCHIKEY=SWRXIGFQDQTNKP-UHFFFAOYSA-N
71.044716 671.0 
79.05407 326.0 
81.034248 267.0 
81.069916 1828.0 
83.082771 407.0 
83.347893 182.0 
84.083466 154.0 
84.969948 313.0 
85.00312 311.0 
85.028778 1904.0 
86.026253 403.0 
87.029808 262.0 
89.831779 447.0 
91.054451 451.0 
92.05912 136.0 
92.241386 115.0 
93.050995 102.0 
93.069107 1377.0 
94.071762 236.0 
94.090164 241.0 
94.161911 162.0 
95.086876 4970.0 
96.055412 235.0 
96.093124 290.0 
97.100746 1327.0 
98.099754 190.0 
99.044266 4664.0 
99.083557 1183.0 
103.038605 14619.0 
103.085876 132.0 
104.042603 350.0 
105.044708 304.0 
105.068863 1535.0 
106.076057 352.0 
107.084618 5357.0 
108.090286 254.0 
108.985214 168.0 
109.02813 592.0 
109.062782 209.0 
109.101624 6933.0 
110.103706 854.0 
111.079071 266.0 
111.117386 296.0 
114.129272 255.0 
114.714714 271.0 
115.054344 156.0 
117.068031 133.0 
118.072998 143.0 
118.221252 385.0 
118.984047 166.0 
119.085876 5751.0 
120.088463 906.0 
121.037643 211.0 
121.078262 309.0 
121.101479 6756.0 
122.105331 674.0 
123.081528 1436.0 
123.116951 5564.0 
123.723633 224.0 
124.124657 218.0 
125.097549 1744.0 
126.103325 211.0 
126.644485 200.0 
126.770645 96.0 
126.879272 112.0 
127.038963 15098.0 
127.110893 5322.0 
127.146767 265.0 
127.472649 139.0 
127.497002 179.0 
128.040131 1722.0 
128.081482 262.0 
128.117752 138.0 
128.338623 145.0 
129.120255 257.0 
129.893814 191.0 
130.079987 388.0 
131.062988 142.0 
131.086563 1427.0 
131.365189 125.0 
132.978561 230.0 
133.101715 7629.0 
134.104736 362.0 
135.088165 198.0 
135.116913 4681.0 
136.095367 245.0 
136.121246 476.0 
137.095963 547.0 
137.132324 1767.0 
138.041931 278.0 
138.134949 97.0 
139.106674 311.0 
141.070526 148.0 
141.127045 173.0 
143.085678 1481.0 
143.108994 631.0 
144.088867 383.0 
144.716187 116.0 
145.01268 150.0 
145.050064 8775.0 
145.101456 3334.0 
145.956238 248.0 
146.00499 161.0 
146.052795 192.0 
146.105255 253.0 
146.72168 229.0 
147.085419 386.0 
147.117325 5828.0 
148.119553 412.0 
149.094437 198.0 
149.133865 2953.0 
149.324432 157.0 
150.136902 149.0 
151.111038 1990.0 
151.147507 366.0 
152.006134 300.0 
152.118027 247.0 
153.128662 1069.0 
154.081802 178.0 
154.130692 141.0 
155.086929 402.0 
156.093552 270.0 
157.103363 3531.0 
158.101913 309.0 
159.080246 160.0 
159.117172 7827.0 
159.805923 138.0 
160.121277 852.0 
161.133469 4533.0 
161.707794 143.0 
162.138046 622.0 
163.061081 5923.0 
163.113342 736.0 
163.149384 3372.0 
164.064331 125.0 
164.152039 174.0 
165.126602 435.0 
165.411697 98.0 
167.144073 1384.0 
168.096298 141.0 
168.186981 150.0 
169.09877 1439.0 
169.159988 169.0 
171.008789 276.0 
171.03392 125.0 
171.075531 259.0 
171.117447 3111.0 
172.069229 80.0 
172.12085 623.0 
173.133133 5282.0 
174.134811 736.0 
175.114426 174.0 
175.148438 3371.0 
175.461716 184.0 
176.150497 255.0 
177.096436 319.0 
177.124359 1271.0 
177.167297 1705.0 
178.134308 830.0 
178.165741 164.0 
179.148834 462.0 
179.527695 158.0 
181.101013 611.0 
181.160004 1939.0 
182.109604 440.0 
182.337952 211.0 
182.790604 90.0 
183.115509 1786.0 
183.597183 175.0 
183.925812 318.0 
184.120605 670.0 
184.734695 150.0 
185.132217 3212.0 
186.137344 432.0 
187.108109 249.0 
187.149933 2652.0 
188.106567 171.0 
188.146103 182.0 
189.111343 346.0 
189.166397 2564.0 
190.142242 114.0 
190.167618 153.0 
191.144592 2805.0 
191.17897 1299.0 
191.344788 138.0 
192.143829 302.0 
192.190353 203.0 
193.160049 658.0 
195.114349 312.0 
195.174805 447.0 
197.104034 246.0 
197.133682 1517.0 
197.170929 126.0 
198.13855 348.0 
198.687546 137.0 
199.148972 3013.0 
199.256165 195.0 
200.122147 338.0 
200.156708 871.0 
201.134567 435.0 
201.165344 4635.0 
202.178925 372.0 
202.724609 256.0 
203.036026 74.0 
203.146454 1716.0 
203.180969 913.0 
203.731552 128.0 
204.185501 123.0 
205.121704 223.0 
205.157272 706.0 
205.188599 838.0 
205.653992 129.0 
208.179306 160.0 
209.189499 170.0 
210.143082 587.0 
211.119324 166.0 
211.150375 1558.0 
211.869034 112.0 
212.156357 703.0 
213.159332 1400.0 
214.171875 1047.0 
214.717514 203.0 
215.147491 586.0 
215.17984 4096.0 
215.685165 111.0 
216.053772 169.0 
216.098129 264.0 
216.127106 184.0 
216.185013 193.0 
216.862183 126.0 
217.134293 156.0 
217.160843 467.0 
217.193939 1176.0 
218.197311 349.0 
219.17453 1078.0 
220.214752 166.0 
221.130188 245.0 
222.13475 253.0 
222.196472 279.0 
223.14801 321.0 
223.230423 112.0 
224.156982 303.0 
225.167984 1436.0 
226.169098 360.0 
227.075317 185.0 
227.14505 287.0 
227.17897 2817.0 
228.154251 199.0 
228.189758 161.0 
229.16188 715.0 
229.195404 2093.0 
230.199127 644.0 
231.173126 1311.0 
231.206726 600.0 
232.176147 433.0 
233.133774 289.0 
233.189468 1314.0 
234.198318 145.0 
235.204849 1293.0 
237.16362 633.0 
238.176804 143.0 
238.940796 193.0 
239.178574 1823.0 
239.843811 162.0 
240.154617 114.0 
240.18634 1068.0 
240.922089 110.0 
241.194427 1328.0 
242.166565 100.0 
242.203903 435.0 
243.115662 178.0 
243.176147 1877.0 
243.20871 1193.0 
244.17543 238.0 
244.356964 256.0 
244.70314 236.0 
245.189682 662.0 
245.228287 226.0 
246.197754 667.0 
247.209915 611.0 
249.182297 161.0 
249.222717 552.0 
252.164673 107.0 
253.133392 207.0 
253.196854 1436.0 
254.188065 308.0 
255.163208 503.0 
255.210541 1714.0 
256.213165 385.0 
257.191528 10183.0 
258.197388 1675.0 
259.207733 317.0 
259.251587 237.0 
261.211578 598.0 
263.182739 214.0 
263.243896 327.0 
264.507019 382.0 
265.193146 305.0 
266.207336 572.0 
267.173248 290.0 
267.209961 766.0 
267.77771 102.0 
268.014832 184.0 
268.207672 108.0 
268.30246 128.0 
269.043304 94.0 
269.180023 126.0 
269.230133 1685.0 
270.013336 136.0 
271.208221 4846.0 
271.246735 451.0 
271.350464 85.0 
271.433441 88.0 
271.480591 156.0 
272.213928 1535.0 
272.255188 186.0 
273.173004 216.0 
273.22113 3423.0 
273.666016 106.0 
274.228607 636.0 
275.240204 994.0 
275.367706 318.0 
277.200134 331.0 
277.252228 183.0 
278.852325 316.0 
279.203888 280.0 
279.972198 250.0 
280.203552 100.0 
281.225311 970.0 
282.234894 344.0 
282.830505 149.0 
283.208954 254.0 
283.243286 2306.0 
284.253479 338.0 
285.226685 1299.0 
286.2323 312.0 
286.27356 101.0 
287.236938 2394.0 
288.243622 454.0 
289.25174 1110.0 
290.261047 105.0 
291.215912 349.0 
293.226227 807.0 
294.222321 139.0 
295.246979 1197.0 
296.247467 374.0 
297.225708 1004.0 
298.26123 210.0 
299.238129 662.0 
300.239197 166.0 
301.138885 115.0 
301.251373 3780.0 
302.257507 1294.0 
303.269836 165.0 
307.242676 450.0 
308.160767 341.0 
308.492401 218.0 
309.232147 98.0 
309.984924 204.0 
310.225708 189.0 
311.2341 616.0 
312.23938 131.0 
313.115295 140.0 
313.254486 890.0 
314.254303 570.0 
315.2659 1677.0 
317.237457 393.0 
319.252777 224.0 
320.245819 136.0 
321.259247 115.0 
322.217285 102.0 
322.274414 148.0 
323.230042 125.0 
323.27478 675.0 
324.28418 319.0 
325.254639 401.0 
327.277435 563.0 
328.276917 280.0 
329.248718 314.0 
331.702393 383.0 
333.258575 104.0 
335.276428 831.0 
335.569061 174.0 
336.278625 163.0 
337.250702 802.0 
337.290222 187.0 
338.253479 300.0 
339.229767 235.0 
339.267731 574.0 
340.274963 181.0 
340.62738 162.0 
341.285767 4559.0 
341.48764 153.0 
342.292847 1593.0 
347.278473 289.0 
349.288574 160.0 
351.247192 239.0 
351.282379 756.0 
351.565399 161.0 
352.268585 205.0 
353.286133 1388.0 
353.380951 102.0 
354.299683 440.0 
354.45755 200.0 
355.28009 115.0 
357.28006 220.0 
358.282532 146.0 
359.294342 426.0 
360.28949 115.0 
362.842133 156.0 
363.256805 335.0 
363.628967 207.0 
364.027069 240.0 
365.282104 521.0 
365.322357 165.0 
367.311035 609.0 
379.299988 711.0 
382.323853 112.0 
382.631927 92.0 
383.317963 317.0 
383.374817 149.0 
391.330261 180.0 
393.313599 265.0 
395.331177 2093.0 
396.215668 165.0 
396.326019 595.0 
397.284424 148.0 
397.361877 99.0 
401.242767 86.0 
402.068604 103.0 
403.268555 154.0 
403.339966 2092.0 
404.249329 108.0 
404.340088 273.0 
406.33075 90.0 
407.341705 120.0 
409.350616 2201.0 
410.353149 486.0 
411.318085 167.0 
411.366364 2842.0 
412.246124 110.0 
412.369415 210.0 
413.339478 1474.0 
413.421967 301.0 
414.355194 241.0 
416.709045 217.0 
419.243256 132.0 
420.366058 258.0 
420.945343 118.0 
421.198944 185.0 
421.247009 331.0 
421.348846 28490.0 
422.353424 5369.0 
422.465027 199.0 
423.353912 480.0 
423.806915 99.0 
425.242493 149.0 
427.398163 119.0 
429.081238 219.0 
434.259277 153.0 
436.526062 79.0 
436.713074 132.0 
437.298798 244.0 
437.370575 171.0 
437.45639 305.0 
437.654785 117.0 
438.156708 232.0 
438.346039 119.0 
438.545532 92.0 
438.591278 89.0 
438.92868 146.0 
439.237671 358.0 
439.360199 81510.0 
439.822815 127.0 
440.274536 315.0 
440.362488 16912.0 
441.147308 212.0 
441.3638 1211.0 
441.486237 130.0 
442.379089 287.0 
442.670044 126.0 
456.599304 136.0 
457.369415 3187.0 
458.384186 388.0 
460.488464 94.0 
460.717712 100.0 
475.299561 167.0 
501.318604 282.0 
565.389404 100.0 
583.328064 281.0 
583.400635 1836.0 
584.403748 547.0 
585.40918 110.0 
601.408386 1711.0 
602.377869 178.0 
602.414429 708.0 
605.069031 178.0 
619.382324 190.0 
619.430359 744.0 
620.422424 354.0 
637.416748 131.0 
1204.503784 250.0 
1529.786133 217.0 
1551.438721 130.0 
1655.954224 159.0 
1733.968384 185.0 
1805.557007 353.0 
1858.601074 168.0 
1879.300049 250.0 
END IONS

BEGIN IONS
TITLE=Scan Number: 316
PEPMASS=619.41998
CHARGE=1+
MSLEVEL=2
FILENAME=G8_GG8_01_2725.mzXML
INSTRUMENT=ion trap
SCANS=316
SMILES=CC(CCC(O)C(C)(C)O)C1CCC2(C)C3=C(CC(O)C12C)C4(C)CC(OC(=O)CC(C)(O)CC(O)=O)C(O)C(C)(C)C4CC3
INCHIKEY=SWRXIGFQDQTNKP-UHFFFAOYSA-N
70.073227 214.0 
71.048561 3034.0 
71.077049 460.0 
71.522079 183.0 
72.053108 168.0 
73.065155 222.0 
75.280968 168.0 
79.035339 151.0 
79.052582 189.0 
81.031418 525.0 
81.068771 2949.0 
82.746971 144.0 
83.083977 582.0 
83.54985 172.0 
84.038834 332.0 
84.090782 153.0 
84.967499 187.0 
84.983299 262.0 
85.028 7058.0 
85.060684 334.0 
85.263664 109.0 
85.498177 71.0 
86.03196 584.0 
91.054443 380.0 
92.09713 251.0 
93.069969 1639.0 
94.071861 135.0 
94.687447 174.0 
95.085342 4478.0 
95.470253 273.0 
96.089455 247.0 
97.063919 243.0 
97.098953 1213.0 
98.069244 194.0 
98.640472 238.0 
99.043762 7803.0 
99.080109 298.0 
100.047218 118.0 
102.960777 205.0 
103.038895 24090.0 
103.200119 99.0 
103.322922 102.0 
104.043785 1134.0 
105.069077 2089.0 
105.389557 232.0 
106.071838 363.0 
106.240784 207.0 
106.786324 136.0 
107.05143 172.0 
107.08609 6595.0 
107.280067 217.0 
108.090073 933.0 
108.591911 86.0 
108.986458 283.0 
109.027557 1274.0 
109.101257 9317.0 
109.648018 123.0 
110.102921 514.0 
111.038094 126.0 
111.082932 94.0 
111.119637 462.0 
114.301788 194.0 
116.723457 97.0 
117.06749 388.0 
119.085098 7396.0 
120.061546 214.0 
120.089684 383.0 
120.83181 82.0 
121.040428 192.0 
121.068588 361.0 
121.10154 11071.0 
122.103905 1739.0 
122.338402 78.0 
122.968964 97.0 
123.079254 624.0 
123.116539 4923.0 
124.11718 391.0 
125.09481 1232.0 
125.132912 299.0 
125.989136 168.0 
126.998329 358.0 
127.039169 31114.0 
127.074608 187.0 
127.112679 6897.0 
127.257317 113.0 
128.007217 185.0 
128.041962 1894.0 
128.114365 502.0 
128.9758 257.0 
129.066986 159.0 
129.129608 158.0 
130.125626 104.0 
131.085449 1754.0 
132.091217 193.0 
133.101547 11014.0 
134.104553 923.0 
134.45961 165.0 
135.080124 385.0 
135.117386 5596.0 
135.905579 186.0 
135.958954 147.0 
136.119659 606.0 
136.252182 198.0 
137.097092 712.0 
137.132935 2015.0 
137.722488 249.0 
138.096512 127.0 
139.113342 437.0 
139.145828 136.0 
141.066925 114.0 
141.12886 674.0 
142.072693 122.0 
143.085068 529.0 
143.107437 923.0 
144.088531 390.0 
145.050018 11544.0 
145.100281 4077.0 
146.053238 923.0 
146.106171 305.0 
146.471375 149.0 
147.075363 136.0 
147.116547 5241.0 
147.629776 89.0 
147.779556 351.0 
148.122726 335.0 
149.097534 134.0 
149.133377 3360.0 
150.096436 181.0 
150.136627 355.0 
150.974472 170.0 
151.11322 1530.0 
151.146957 1335.0 
152.116989 305.0 
152.156326 168.0 
153.127945 301.0 
153.416885 110.0 
155.143051 632.0 
156.093704 721.0 
157.10025 3615.0 
158.106705 994.0 
159.115814 7526.0 
159.179047 79.0 
160.121216 1010.0 
161.131882 5809.0 
162.137344 797.0 
163.017792 199.0 
163.059799 6646.0 
163.110947 582.0 
163.146881 2814.0 
164.007263 89.0 
164.066391 256.0 
164.15123 337.0 
164.252335 147.0 
165.061295 179.0 
165.125046 68.0 
165.153915 248.0 
167.14241 790.0 
167.364838 167.0 
168.096848 191.0 
169.100906 776.0 
170.108826 926.0 
170.527725 291.0 
170.666824 179.0 
171.068756 218.0 
171.115524 3010.0 
172.122925 332.0 
173.133453 6292.0 
174.089035 203.0 
174.136169 1171.0 
175.053772 230.0 
175.109222 174.0 
175.149414 3042.0 
175.886673 80.0 
176.148041 613.0 
177.131317 2271.0 
177.162064 1185.0 
178.128052 150.0 
178.862411 145.0 
179.146149 441.0 
179.177505 390.0 
181.161469 1386.0 
182.163589 298.0 
182.892349 659.0 
183.070892 218.0 
183.119492 1721.0 
183.17218 114.0 
184.124374 204.0 
185.132935 2989.0 
186.133957 403.0 
186.830734 335.0 
186.950104 108.0 
187.109741 353.0 
187.148575 4318.0 
187.20961 239.0 
187.274506 88.0 
187.600677 115.0 
188.153122 1127.0 
189.125336 379.0 
189.165558 1876.0 
190.168442 462.0 
191.144608 2103.0 
191.180161 576.0 
192.149765 172.0 
192.5009 112.0 
195.118835 558.0 
195.173019 1269.0 
196.076691 220.0 
196.121384 314.0 
197.13472 1609.0 
198.143021 754.0 
199.148911 4198.0 
200.154037 1312.0 
201.09201 171.0 
201.128464 1015.0 
201.163605 4616.0 
202.129272 261.0 
202.160278 157.0 
202.640808 158.0 
203.142303 2418.0 
203.186691 977.0 
203.760803 178.0 
204.142151 215.0 
204.189926 183.0 
205.160461 1837.0 
205.195847 422.0 
206.160355 184.0 
206.202759 85.0 
207.177048 963.0 
207.209717 359.0 
208.185272 188.0 
209.125824 132.0 
209.513351 199.0 
210.141006 177.0 
210.188644 171.0 
211.147369 2841.0 
211.39357 130.0 
212.152328 927.0 
213.162308 2219.0 
214.112396 222.0 
214.17363 308.0 
215.179733 4180.0 
216.188675 1280.0 
217.15921 327.0 
217.199036 1025.0 
218.200058 164.0 
219.173462 1427.0 
219.765732 134.0 
220.121918 176.0 
220.214355 138.0 
221.195709 342.0 
224.151215 480.0 
225.164108 1518.0 
226.178162 746.0 
227.180496 2765.0 
228.187881 802.0 
229.119736 245.0 
229.153244 341.0 
229.19693 4614.0 
230.199783 861.0 
231.174011 1238.0 
232.09964 185.0 
232.17894 176.0 
232.214035 132.0 
233.189072 1026.0 
234.195358 424.0 
235.097153 174.0 
235.139877 154.0 
235.206543 606.0 
235.239761 164.0 
236.210373 351.0 
237.176376 189.0 
237.213867 226.0 
237.70314 301.0 
238.16745 628.0 
239.150131 365.0 
239.182388 2690.0 
239.33284 81.0 
240.142807 144.0 
240.183289 1032.0 
241.159561 81.0 
241.197662 3154.0 
242.189255 184.0 
243.175003 1213.0 
243.21228 958.0 
244.177979 117.0 
244.211365 106.0 
245.151703 131.0 
245.190613 2063.0 
245.223419 547.0 
246.192169 417.0 
246.533295 347.0 
247.20694 1213.0 
249.158981 130.0 
249.23056 374.0 
251.179611 627.0 
252.186707 321.0 
253.127487 149.0 
253.16774 177.0 
253.197739 1424.0 
254.195343 471.0 
255.12355 167.0 
255.183777 503.0 
255.213394 1526.0 
256.210052 433.0 
257.190033 9652.0 
257.231232 805.0 
258.189087 1309.0 
258.227081 168.0 
259.15033 143.0 
259.204803 1208.0 
259.236755 430.0 
260.209045 313.0 
261.218597 758.0 
263.207458 119.0 
264.032104 111.0 
265.192139 485.0 
266.210968 309.0 
267.2099 1309.0 
268.184753 196.0 
269.204407 390.0 
269.229584 1341.0 
269.307739 320.0 
269.86853 192.0 
270.191864 240.0 
270.232666 410.0 
270.659546 209.0 
270.970215 276.0 
271.106873 256.0 
271.207092 5322.0 
272.207275 874.0 
272.249207 130.0 
273.221985 4458.0 
274.225311 670.0 
275.242004 834.0 
277.200653 170.0 
279.151093 140.0 
279.215302 516.0 
281.223907 1971.0 
282.224213 179.0 
283.200104 853.0 
283.24646 1216.0 
283.347198 95.0 
285.222534 1649.0 
285.257629 293.0 
285.977722 156.0 
286.148743 184.0 
286.215271 179.0 
287.237915 3129.0 
287.976257 103.0 
288.245636 945.0 
288.716858 78.0 
289.249756 724.0 
290.057983 87.0 
293.230042 313.0 
293.466919 230.0 
294.243805 224.0 
295.199554 236.0 
295.239258 623.0 
296.240662 80.0 
297.223114 112.0 
297.257568 619.0 
298.233765 143.0 
299.229462 263.0 
300.237366 748.0 
300.466248 156.0 
301.252655 7108.0 
302.256317 1473.0 
303.246338 268.0 
303.282684 238.0 
305.217438 296.0 
307.182068 175.0 
307.235535 275.0 
309.215057 499.0 
309.273438 374.0 
311.236053 1590.0 
312.247192 226.0 
313.254242 1593.0 
314.263 233.0 
314.446594 84.0 
315.197845 219.0 
315.256866 796.0 
316.270508 113.0 
319.264221 413.0 
320.222778 199.0 
321.257843 316.0 
321.493561 167.0 
322.259003 352.0 
323.276886 970.0 
324.247986 132.0 
325.140045 78.0 
325.248901 377.0 
325.946899 240.0 
326.315216 163.0 
327.278809 557.0 
328.225525 104.0 
328.273132 378.0 
329.247986 179.0 
329.280121 182.0 
331.263611 129.0 
333.272278 129.0 
335.167419 170.0 
335.271759 759.0 
336.289642 395.0 
337.254974 726.0 
338.315857 239.0 
339.270874 521.0 
340.272125 348.0 
340.847809 159.0 
341.138245 262.0 
341.28595 3734.0 
341.905975 300.0 
342.283386 427.0 
343.28653 196.0 
344.538055 141.0 
345.277008 243.0 
347.272614 421.0 
348.280396 225.0 
349.291473 753.0 
351.236694 175.0 
351.270386 512.0 
351.827209 252.0 
353.285522 2133.0 
353.500275 160.0 
353.920288 103.0 
353.983185 221.0 
354.29306 276.0 
355.304291 315.0 
355.339478 113.0 
356.154083 202.0 
357.279968 578.0 
359.294708 899.0 
361.27359 249.0 
365.289764 867.0 
366.292633 235.0 
367.268372 250.0 
367.297119 307.0 
369.271912 389.0 
377.886414 109.0 
378.295868 188.0 
379.302307 432.0 
380.313812 164.0 
381.309814 146.0 
382.335663 81.0 
383.30365 573.0 
383.379059 207.0 
386.299286 137.0 
388.303772 155.0 
392.298737 331.0 
394.360168 133.0 
395.335602 1964.0 
396.341675 728.0 
396.71701 91.0 
397.28302 243.0 
397.337799 132.0 
398.344452 107.0 
399.303192 379.0 
402.482361 200.0 
403.310333 196.0 
403.342804 862.0 
404.356995 211.0 
405.026184 204.0 
405.980194 80.0 
409.341888 1532.0 
410.288086 232.0 
410.352264 333.0 
411.364319 1824.0 
412.378296 216.0 
412.777161 246.0 
413.17041 127.0 
413.346649 1052.0 
419.695618 167.0 
420.39444 134.0 
421.250732 430.0 
421.349518 29984.0 
421.425262 104.0 
421.575378 208.0 
421.977417 87.0 
422.351013 7338.0 
422.427917 139.0 
422.570862 86.0 
422.750244 72.0 
423.352661 353.0 
424.343903 127.0 
424.5896 88.0 
424.745361 89.0 
424.853882 128.0 
425.128113 122.0 
426.058258 87.0 
426.317596 185.0 
429.429047 204.0 
433.250214 191.0 
434.266296 89.0 
435.281311 182.0 
437.383759 127.0 
437.766266 286.0 
438.077209 119.0 
438.130493 91.0 
438.217896 218.0 
438.318695 428.0 
438.518555 151.0 
438.720764 150.0 
438.81955 151.0 
438.858734 121.0 
439.034302 187.0 
439.194489 177.0 
439.269531 401.0 
439.360077 89357.0 
439.465881 158.0 
439.513977 164.0 
439.589844 108.0 
439.716583 131.0 
439.757263 79.0 
439.959137 356.0 
440.075226 140.0 
440.188965 90.0 
440.264404 244.0 
440.362915 17533.0 
440.825897 126.0 
440.923309 160.0 
441.279297 82.0 
441.309814 135.0 
441.370758 608.0 
443.077667 167.0 
444.066681 122.0 
457.370392 5269.0 
458.374329 1763.0 
459.118805 100.0 
470.194519 140.0 
499.350159 220.0 
528.344299 386.0 
529.371948 142.0 
566.36853 86.0 
566.587463 96.0 
582.846619 78.0 
583.406128 1349.0 
584.406982 216.0 
584.598816 101.0 
601.3125 129.0 
601.421265 2270.0 
602.424377 1001.0 
619.420532 782.0 
1483.109375 219.0 
1750.550537 119.0 
1782.891602 258.0 
1820.765015 235.0 
1856.032593 194.0 
END IONS

BEGIN IONS
TITLE=Scan Number: 317
PEPMASS=654.45801
CHARGE=1+
MSLEVEL=2
FILENAME=G8_GG8_01_2725.mzXML
INSTRUMENT=ion trap
SCANS=317
SMILES=CC(CCC(O)C(C)(C)O)C1CCC2(C)C3=C(CC(O)C12C)C4(C)CC(OC(=O)CC(C)(O)CC(O)=O)C(O)C(C)(C)C4CC3
INCHIKEY=SWRXIGFQDQTNKP-UHFFFAOYSA-N
78.124519 248.0 
79.05291 477.0 
80.056374 262.0 
83.086044 317.0 
85.027283 1144.0 
85.067047 148.0 
91.059669 182.0 
93.07222 835.0 
95.084625 1222.0 
97.064209 206.0 
98.079353 87.0 
99.041954 972.0 
99.080048 428.0 
100.052101 183.0 
103.03923 4204.0 
104.040855 333.0 
105.069527 577.0 
107.084167 684.0 
108.665802 259.0 
109.101418 2621.0 
111.073662 186.0 
111.124741 298.0 
113.094994 124.0 
116.989525 96.0 
117.056885 424.0 
119.083801 1119.0 
120.087906 354.0 
121.100769 1680.0 
122.104362 353.0 
123.07267 244.0 
123.117195 1791.0 
125.100311 229.0 
125.136589 244.0 
127.03862 5336.0 
127.111809 1710.0 
128.043152 654.0 
131.085327 781.0 
133.101501 1030.0 
133.601425 335.0 
134.100525 406.0 
135.116364 772.0 
137.134018 196.0 
138.237717 325.0 
139.111893 456.0 
139.885574 380.0 
141.130661 227.0 
143.086884 696.0 
145.048141 2597.0 
145.099426 1693.0 
146.108826 146.0 
146.946671 118.0 
147.116776 1801.0 
148.120331 118.0 
149.131592 1672.0 
151.113541 411.0 
151.150757 174.0 
153.124619 389.0 
157.097366 605.0 
158.098373 95.0 
158.669281 311.0 
159.117676 2566.0 
160.753601 124.0 
161.095062 305.0 
161.132706 859.0 
161.425629 111.0 
162.133759 143.0 
163.059296 1283.0 
163.148911 913.0 
164.151932 161.0 
165.128998 150.0 
167.14978 160.0 
169.099991 128.0 
170.11171 243.0 
170.143311 299.0 
171.118546 715.0 
173.132935 1647.0 
175.146362 1691.0 
176.150864 157.0 
177.127945 530.0 
177.162354 1052.0 
178.135742 335.0 
179.143997 344.0 
181.112045 236.0 
181.158676 671.0 
183.11647 1449.0 
185.134445 1303.0 
187.072861 130.0 
187.145859 836.0 
188.158035 114.0 
189.125809 142.0 
189.165085 719.0 
190.165802 138.0 
191.149475 196.0 
192.996826 201.0 
194.16777 106.0 
195.111679 117.0 
195.174545 205.0 
196.132919 202.0 
196.627197 231.0 
197.133347 130.0 
198.138809 185.0 
198.339462 171.0 
199.147263 529.0 
200.149872 145.0 
201.123962 357.0 
201.166489 1297.0 
203.141693 197.0 
203.180054 103.0 
204.176453 120.0 
205.154663 477.0 
205.755737 177.0 
206.162094 139.0 
207.168823 244.0 
209.125137 185.0 
209.188339 127.0 
210.140488 295.0 
211.14537 88.0 
212.157776 166.0 
213.164032 1812.0 
214.169113 555.0 
215.143021 667.0 
215.178787 737.0 
216.18486 173.0 
217.164581 256.0 
217.200516 469.0 
217.475616 113.0 
218.193329 102.0 
219.172897 158.0 
220.081955 145.0 
224.119324 168.0 
225.112625 122.0 
225.133484 249.0 
225.175964 354.0 
226.166351 149.0 
227.178696 767.0 
228.190475 296.0 
229.16066 191.0 
229.19606 1279.0 
230.196442 232.0 
231.087646 167.0 
231.1306 137.0 
231.216476 201.0 
232.139359 129.0 
233.15863 392.0 
233.189987 350.0 
235.150818 174.0 
235.207352 855.0 
239.174774 421.0 
240.177551 390.0 
241.190109 501.0 
241.825012 236.0 
242.205643 260.0 
243.173813 166.0 
243.199768 334.0 
244.120987 168.0 
244.222183 143.0 
245.18898 315.0 
246.194977 148.0 
249.010376 256.0 
249.217896 367.0 
251.199371 150.0 
252.188644 89.0 
253.195908 771.0 
254.194672 212.0 
255.209244 228.0 
257.189331 2504.0 
258.19751 674.0 
258.237793 182.0 
259.208405 390.0 
259.978271 109.0 
261.498016 286.0 
261.970215 116.0 
265.164551 130.0 
265.193634 279.0 
267.141663 101.0 
267.216919 272.0 
267.37207 270.0 
268.217133 117.0 
269.227814 578.0 
271.209259 1962.0 
272.208832 144.0 
273.217346 274.0 
274.223602 444.0 
275.201141 200.0 
275.247253 278.0 
277.18811 113.0 
279.195038 121.0 
281.240021 457.0 
283.115479 180.0 
283.242981 315.0 
285.224243 416.0 
285.63678 116.0 
287.20929 153.0 
287.23761 927.0 
287.550171 129.0 
288.236176 182.0 
289.210388 143.0 
289.251984 700.0 
291.20932 303.0 
293.227875 345.0 
294.161133 126.0 
294.233948 136.0 
300.274567 183.0 
300.798218 301.0 
301.175232 211.0 
301.253754 1525.0 
302.250366 119.0 
309.231506 445.0 
311.240295 409.0 
311.295105 265.0 
312.247803 144.0 
313.250122 217.0 
315.273346 264.0 
321.257477 266.0 
322.271606 219.0 
323.276184 801.0 
324.247284 89.0 
325.254089 137.0 
326.264709 190.0 
327.270935 230.0 
335.273499 139.0 
337.261871 118.0 
338.202026 172.0 
339.261719 90.0 
340.281494 190.0 
341.286194 1337.0 
342.30722 492.0 
344.268372 122.0 
345.159332 100.0 
345.268494 102.0 
350.094147 108.0 
351.268707 221.0 
353.285156 725.0 
354.205811 185.0 
356.314911 191.0 
357.287781 185.0 
359.218384 126.0 
360.279541 116.0 
366.292755 237.0 
367.308777 541.0 
368.884705 118.0 
370.268921 106.0 
371.301636 308.0 
380.281097 170.0 
381.319427 582.0 
383.33609 129.0 
384.326691 188.0 
393.341797 243.0 
395.296295 477.0 
395.332672 4250.0 
396.335632 1373.0 
397.28476 234.0 
397.345123 358.0 
398.312469 133.0 
403.335236 310.0 
403.396332 237.0 
404.339233 124.0 
406.319153 150.0 
409.308014 124.0 
409.349274 336.0 
410.350769 509.0 
411.365021 302.0 
413.24173 198.0 
413.344055 2206.0 
413.78006 90.0 
414.354401 415.0 
420.285034 139.0 
421.351807 11527.0 
421.423279 204.0 
422.01059 110.0 
422.315948 328.0 
422.355591 1922.0 
423.347931 332.0 
425.218384 99.0 
435.279907 363.0 
438.827515 105.0 
439.359589 29054.0 
440.302338 446.0 
440.360291 7095.0 
440.809845 111.0 
441.36731 311.0 
443.348022 154.0 
457.181793 102.0 
457.227783 101.0 
457.368164 1811.0 
458.369385 884.0 
479.275757 84.0 
480.270111 101.0 
493.293335 83.0 
495.309967 112.0 
532.335022 145.0 
555.324768 115.0 
583.394592 546.0 
597.313232 127.0 
599.41925 306.0 
601.118896 108.0 
601.230591 243.0 
601.415466 1018.0 
602.428406 430.0 
619.342468 171.0 
619.424072 590.0 
633.338074 142.0 
654.233459 160.0 
654.439758 129.0 
654.522827 236.0 
655.391968 206.0 
656.413818 146.0 
701.364868 271.0 
710.546631 104.0 
884.46051 116.0 
891.540344 82.0 
1930.60791 306.0 
END IONS

BEGIN IONS
TITLE=Scan Number: 318
PEPMASS=741.22302
CHARGE=1+
MSLEVEL=2
FILENAME=G8_GG8_01_2725.mzXML
INSTRUMENT=ion trap
SCANS=318
SMILES=C[C@@H]1O[C@@H](O[C@@H]2[C@@H](O)[C@H](C)O[C@@H](OC[C@H]3O[C@@H](OC4=C(OC5=C(C4=O)C(O)=CC(O)=C5)C6=CC=C(O)C=C6)[C@H](O)[C@@H](O)[C@H]3O)[C@@H]2O)[C@H](O)[C@H](O)[C@H]1O
INCHIKEY=UYVBMGULWGRDQT-KABOUGNXSA-N
70.111305 145.0 
71.015045 236.0 
71.0485 6105.0 
71.903564 183.0 
72.013206 137.0 
72.593948 246.0 
73.026741 2851.0 
75.044769 359.0 
81.028915 153.0 
83.026413 182.0 
83.048134 2063.0 
83.326576 191.0 
85.027466 15707.0 
85.775215 119.0 
86.032036 1323.0 
87.041794 326.0 
87.227005 191.0 
90.661621 189.0 
91.038597 1956.0 
92.043411 210.0 
93.032188 199.0 
93.132828 199.0 
96.468063 232.0 
97.028358 1140.0 
98.032082 209.0 
98.289436 128.0 
99.044609 3437.0 
100.047867 271.0 
101.020538 206.0 
102.024902 244.0 
105.025055 289.0 
109.027824 348.0 
110.548515 171.0 
111.007187 333.0 
111.042747 1070.0 
111.680458 323.0 
112.88308 144.0 
113.023056 170.0 
113.056473 278.0 
115.037453 317.0 
116.042847 192.0 
117.055069 6684.0 
119.030693 146.0 
121.025177 490.0 
121.067024 227.0 
127.03791 2387.0 
128.005142 218.0 
128.042038 247.0 
129.022461 170.0 
129.05452 8151.0 
130.058456 736.0 
130.903061 89.0 
131.030563 312.0 
132.048981 124.0 
135.038757 176.0 
137.023575 179.0 
137.061569 121.0 
140.180222 162.0 
141.053268 149.0 
145.050461 1319.0 
145.810242 193.0 
147.02655 242.0 
147.064636 4837.0 
149.057373 174.0 
151.043976 211.0 
151.073364 165.0 
153.019531 603.0 
153.05043 655.0 
153.187775 303.0 
154.057465 123.0 
155.068542 97.0 
157.049179 170.0 
158.428177 89.0 
159.326889 219.0 
161.055847 286.0 
161.390793 169.0 
161.915878 186.0 
163.059662 10678.0 
164.065094 444.0 
165.01326 364.0 
166.02092 159.0 
170.18541 239.0 
170.593857 99.0 
170.980194 315.0 
171.065353 779.0 
174.357544 378.0 
177.304733 180.0 
183.031708 343.0 
183.064529 498.0 
184.525543 210.0 
187.060638 319.0 
195.065674 341.0 
197.055359 250.0 
197.186829 272.0 
200.060486 191.0 
201.071503 151.0 
203.547821 138.0 
205.351578 115.0 
207.064178 121.0 
209.084961 333.0 
211.101791 124.0 
211.242569 348.0 
213.057892 383.0 
215.060577 222.0 
217.071457 275.0 
221.081009 316.0 
221.787537 288.0 
225.067566 173.0 
227.091934 226.0 
229.107742 265.0 
231.064926 161.0 
231.089996 419.0 
232.062744 130.0 
235.024307 122.0 
235.092667 131.0 
236.794205 232.0 
239.092636 1042.0 
241.039764 115.0 
241.065292 251.0 
242.059326 150.0 
245.0383 96.0 
250.838287 242.0 
253.336853 141.0 
254.019958 181.0 
255.08989 371.0 
255.441803 260.0 
257.09491 177.0 
257.754913 212.0 
258.122894 268.0 
259.056366 273.0 
262.524658 271.0 
268.582031 167.0 
270.025452 211.0 
273.104279 204.0 
275.112183 818.0 
277.288177 255.0 
277.845215 156.0 
278.257751 215.0 
279.040344 196.0 
283.055969 163.0 
284.201752 96.0 
284.706482 188.0 
285.296997 101.0 
285.390167 137.0 
285.439514 83.0 
285.746887 102.0 
285.924011 96.0 
285.948975 144.0 
285.996246 89.0 
286.16745 354.0 
286.258179 190.0 
286.349091 410.0 
286.690491 102.0 
286.735138 192.0 
286.787628 97.0 
286.818848 152.0 
286.888977 255.0 
286.939514 319.0 
287.055237 447738.0 
287.113007 409.0 
287.148102 306.0 
287.193146 70.0 
287.250488 127.0 
287.295441 148.0 
287.394989 390.0 
287.466675 471.0 
287.539978 112.0 
287.59256 282.0 
287.820007 256.0 
287.867126 226.0 
288.058838 58816.0 
288.622742 199.0 
288.80484 83.0 
289.062744 5010.0 
289.477478 161.0 
289.553253 215.0 
289.746765 233.0 
289.879913 292.0 
289.923126 209.0 
289.967926 595.0 
290.11972 299.0 
290.192841 120.0 
290.220276 452.0 
290.273529 105.0 
290.310059 95.0 
290.387024 98.0 
290.486389 176.0 
291.270599 103.0 
293.120087 726.0 
297.939178 98.0 
298.330383 87.0 
299.023773 129.0 
300.025513 91.0 
305.626587 128.0 
309.117432 274.0 
311.053864 157.0 
329.059692 590.0 
329.30368 198.0 
330.063538 339.0 
332.432159 113.0 
353.06073 185.0 
359.074127 140.0 
365.057159 290.0 
367.072205 131.0 
383.096008 181.0 
385.627625 81.0 
395.072937 369.0 
398.088959 170.0 
401.152313 150.0 
406.798309 139.0 
411.155548 164.0 
413.097351 141.0 
415.100922 97.0 
433.115845 906.0 
437.065094 114.0 
448.399567 146.0 
448.765839 166.0 
449.109711 13716.0 
450.111847 3259.0 
451.113739 662.0 
454.340759 150.0 
457.113434 111.0 
462.62674 194.0 
470.286469 101.0 
474.146942 144.0 
594.749512 115.0 
595.16449 1854.0 
596.182312 348.0 
597.169189 149.0 
742.220032 117.0 
743.396851 159.0 
1322.2948 97.0 
1878.682495 107.0 
1997.011719 238.0 
END IONS

BEGIN IONS
TITLE=Scan Number: 320
PEPMASS=757.21802
CHARGE=1+
MSLEVEL=2
FILENAME=G8_GG8_01_2725.mzXML
INSTRUMENT=ion trap
SCANS=320
SMILES=C[C@@H]1O[C@@H](O[C@@H]2[C@@H](O)[C@H](C)O[C@@H](OCC3OC(OC4=C(OC5=C(C4=O)C(O)=CC(O)=C5)C6=CC(O)=C(O)C=C6)C(O)C(O)C3O)[C@@H]2O)[C@H](O)[C@H](O)[C@H]1O
INCHIKEY=MNIDWWPXTZZMMY-FPMVPXBLSA-N
71.01281 312.0 
71.04834 2933.0 
72.051781 640.0 
73.028336 1059.0 
74.03138 254.0 
75.037338 99.0 
75.343315 151.0 
81.035782 516.0 
83.049454 1050.0 
85.027809 6227.0 
85.49968 86.0 
86.02993 235.0 
87.042992 195.0 
91.038567 683.0 
92.042549 234.0 
97.027718 793.0 
98.037018 214.0 
99.044655 2545.0 
101.050941 220.0 
102.06662 428.0 
102.974678 130.0 
103.195541 148.0 
109.063713 162.0 
111.044891 930.0 
111.770233 120.0 
113.060349 190.0 
115.037498 181.0 
117.054657 2704.0 
118.059303 315.0 
123.082344 161.0 
127.039558 2050.0 
128.048096 195.0 
129.055511 3419.0 
129.127029 253.0 
131.684525 251.0 
133.06636 304.0 
135.082962 214.0 
137.028442 257.0 
138.065704 149.0 
145.048538 756.0 
147.06456 2646.0 
148.070557 313.0 
149.057617 156.0 
153.017868 380.0 
156.073944 121.0 
156.237732 182.0 
157.062958 215.0 
159.056458 185.0 
161.054398 106.0 
163.058685 4503.0 
164.061234 292.0 
165.016357 543.0 
165.193985 305.0 
168.16713 266.0 
169.042938 247.0 
171.071747 147.0 
181.04776 177.0 
187.068527 117.0 
193.085297 141.0 
196.040634 213.0 
201.075378 326.0 
203.068909 106.0 
211.100159 342.0 
213.069916 159.0 
219.018341 194.0 
222.097443 415.0 
224.718018 306.0 
227.011841 176.0 
229.041336 367.0 
231.08815 265.0 
237.068939 187.0 
239.093201 558.0 
240.098007 201.0 
241.206711 188.0 
241.817688 116.0 
247.039902 158.0 
247.062469 514.0 
255.082642 399.0 
257.042023 362.0 
257.099396 497.0 
258.115875 279.0 
273.10257 431.0 
274.049164 316.0 
274.097565 177.0 
274.830658 211.0 
274.993591 345.0 
275.057739 317.0 
275.112457 549.0 
276.09314 163.0 
281.618469 165.0 
285.052368 295.0 
286.051147 184.0 
293.124725 538.0 
294.002014 207.0 
301.671844 161.0 
302.021942 129.0 
302.059845 156.0 
302.170654 121.0 
302.36969 258.0 
302.523041 275.0 
302.561035 232.0 
302.627014 215.0 
302.695282 97.0 
302.803864 473.0 
303.051117 189089.0 
303.162384 113.0 
303.575195 106.0 
303.927643 171.0 
303.999237 430.0 
304.054596 27369.0 
304.605164 110.0 
305.058777 2847.0 
306.018097 142.0 
306.90625 126.0 
311.124207 239.0 
315.043945 220.0 
323.730927 92.0 
341.073547 150.0 
345.059418 483.0 
393.05603 133.0 
395.079407 378.0 
411.037018 91.0 
411.088684 112.0 
429.089111 225.0 
431.091766 146.0 
434.053009 175.0 
447.095825 127.0 
449.102966 627.0 
450.143524 234.0 
464.412933 134.0 
465.104156 6473.0 
466.111267 1415.0 
467.099609 319.0 
573.882507 143.0 
595.175537 431.0 
611.049561 153.0 
611.154297 231.0 
703.316406 152.0 
757.213318 190.0 
1432.946411 250.0 
1993.018921 248.0 
END IONS

BEGIN IONS
TITLE=Scan Number: 323
PEPMASS=333.09698
CHARGE=1+
MSLEVEL=2
FILENAME=C10_GC10_01_2622.mzXML
INSTRUMENT=ion trap
SCANS=323
SMILES=COC(=O)C1=C(C(=O)C2=C(O)C=C(C)C=C2O)C(OC)=CC(O)=C1
INCHIKEY=YJRLSCDUYLRBIZ-UHFFFAOYSA-N
76.253471 252.0 
78.011627 728.0 
78.05175 308.0 
79.916115 272.0 
80.025299 676.0 
81.034843 204.0 
81.06823 152.0 
81.599487 284.0 
82.007332 255.0 
82.040779 1241.0 
83.012184 267.0 
83.048782 540.0 
83.516075 387.0 
83.735802 196.0 
84.019897 332.0 
88.24099 241.0 
90.690277 252.0 
90.841644 184.0 
91.002235 219.0 
91.018951 449.0 
91.053047 187.0 
92.024796 521.0 
92.996582 241.0 
93.031715 1484.0 
93.389351 140.0 
94.042313 522.0 
94.721916 142.0 
95.011475 1868.0 
95.049301 4129.0 
96.018967 973.0 
96.053513 414.0 
97.062958 189.0 
98.247696 105.0 
99.005249 412.0 
99.041519 129.0 
105.044418 1631.0 
106.041046 166.0 
106.946228 92.0 
107.048653 1210.0 
108.019417 3794.0 
108.775177 228.0 
108.896278 180.0 
109.027428 1749.0 
109.865067 191.0 
110.033791 660.0 
111.006531 99.0 
111.043121 678.0 
112.010239 217.0 
113.028061 250.0 
113.05983 304.0 
114.492439 89.0 
115.038116 141.0 
119.013016 795.0 
119.049484 879.0 
119.994331 136.0 
120.018944 2376.0 
120.716003 205.0 
120.95446 134.0 
121.028885 5574.0 
121.998276 249.0 
122.034035 2367.0 
122.976166 164.0 
123.008781 3588.0 
123.043945 3679.0 
124.01255 182.0 
124.053246 1276.0 
125.021324 295.0 
125.058487 3289.0 
126.028893 1193.0 
126.062943 487.0 
127.041199 525.0 
127.134651 64.0 
128.060699 196.0 
132.021591 110.0 
133.02829 454.0 
134.95697 186.0 
135.007187 4497.0 
135.045609 2366.0 
135.968658 186.0 
136.014633 37740.0 
136.046097 369.0 
137.02037 3451.0 
137.057159 341.0 
137.566406 159.0 
138.029449 21049.0 
138.075714 151.0 
138.117966 102.0 
138.197083 155.0 
138.221725 131.0 
138.338791 76.0 
138.773788 147.0 
139.034088 1567.0 
139.074234 364.0 
139.241608 271.0 
139.690506 159.0 
140.039459 419.0 
140.495911 90.0 
141.014908 1768.0 
141.053513 1500.0 
141.954742 245.0 
142.019165 198.0 
145.07077 204.0 
146.017441 203.0 
147.072342 264.0 
147.638931 395.0 
148.013763 317.0 
148.986526 218.0 
149.022141 5498.0 
150.031265 6293.0 
150.499283 211.0 
150.585999 103.0 
150.664047 172.0 
150.9655 270.0 
150.998108 462.0 
151.037933 46741.0 
151.082458 206.0 
151.770966 98.0 
151.961304 231.0 
151.984024 147.0 
152.013474 1113.0 
152.040863 5002.0 
152.992752 156.0 
153.05336 1069.0 
153.845932 222.0 
154.025833 1693.0 
155.022354 366.0 
155.05014 267.0 
155.069016 533.0 
158.584747 86.0 
159.082733 133.0 
160.014145 133.0 
160.963089 225.0 
161.035416 138.0 
163.038574 1142.0 
163.687653 349.0 
164.010803 1388.0 
164.041946 128.0 
165.027512 264.0 
165.051331 498.0 
165.44751 275.0 
165.949112 280.0 
166.024994 28305.0 
166.407761 250.0 
166.540421 84.0 
167.029816 3443.0 
167.522263 220.0 
168.057037 408.0 
169.048553 5121.0 
169.087082 182.0 
170.053574 345.0 
171.058075 247.0 
173.038406 139.0 
173.674225 248.0 
174.063461 157.0 
176.010361 1498.0 
177.018433 286.0 
177.03981 259.0 
178.445755 196.0 
178.632812 227.0 
178.987747 205.0 
179.032791 16988.0 
179.129318 182.0 
179.997498 402.0 
180.038132 2314.0 
181.012268 427.0 
181.048782 21125.0 
182.01825 468.0 
182.054062 1950.0 
183.025177 521.0 
183.065689 1475.0 
183.251724 188.0 
183.452988 170.0 
184.035156 4681.0 
184.945358 159.0 
185.038803 318.0 
188.005859 135.0 
188.044281 324.0 
188.971924 236.0 
189.023895 591.0 
189.764435 179.0 
191.033646 515.0 
191.573349 225.0 
192.443512 148.0 
193.973724 221.0 
193.989929 262.0 
194.019547 3989.0 
195.021713 621.0 
201.054337 75.0 
202.027893 118.0 
203.068542 251.0 
203.958054 203.0 
204.00531 7461.0 
204.903229 281.0 
205.013062 575.0 
206.027222 249.0 
206.188248 156.0 
206.222183 125.0 
207.543488 213.0 
208.123688 125.0 
208.289413 178.0 
208.325302 130.0 
208.505936 291.0 
208.608963 172.0 
208.736786 74.0 
208.816452 101.0 
208.921249 308.0 
208.94101 361.0 
209.043915 296932.0 
209.134796 122.0 
209.25354 200.0 
209.288712 121.0 
209.327545 107.0 
209.430099 91.0 
209.480209 86.0 
209.550583 127.0 
209.58493 140.0 
209.824005 101.0 
209.868057 113.0 
209.989609 160.0 
210.046722 23382.0 
210.191711 85.0 
210.561569 134.0 
210.948654 169.0 
211.047195 798.0 
211.362854 85.0 
211.387848 185.0 
211.416382 175.0 
211.557343 137.0 
211.615845 177.0 
211.67038 91.0 
211.716171 342.0 
211.738174 338.0 
211.807358 133.0 
212.043472 850.0 
212.475876 128.0 
212.613937 261.0 
212.659241 115.0 
214.063873 196.0 
217.076248 302.0 
218.517365 172.0 
218.898438 108.0 
219.027588 31576.0 
219.128281 122.0 
219.386826 146.0 
219.588882 89.0 
219.702698 155.0 
220.03067 3565.0 
221.923889 67.0 
221.978073 396.0 
222.014969 5323.0 
222.877396 99.0 
223.018692 570.0 
223.498306 131.0 
224.021011 157.0 
224.292313 121.0 
226.060364 100.0 
227.073685 382.0 
235.022934 679.0 
237.037872 15385.0 
238.043793 1665.0 
239.038635 137.0 
246.094406 266.0 
256.068634 121.0 
257.075165 457.0 
258.049622 127.0 
259.045929 90.0 
263.039978 104.0 
273.072052 864.0 
295.346344 253.0 
301.014496 161.0 
301.069763 7762.0 
302.066162 581.0 
333.291748 174.0 
574.537964 280.0 
752.866699 85.0 
1450.924683 319.0 
1459.755249 310.0 
1529.854126 309.0 
1711.678223 110.0 
1756.816528 207.0 
1760.093506 189.0 
1831.578369 288.0 
1898.285767 156.0 
1923.854858 458.0 
1930.79126 171.0 
END IONS

BEGIN IONS
TITLE=Scan Number: 324
PEPMASS=401.01901
CHARGE=1+
MSLEVEL=2
FILENAME=C10_GC10_01_2622.mzXML
INSTRUMENT=ion trap
SCANS=324
SMILES=COC(=O)C1=C(C(=O)C2=C(OC)C(Cl)=C(C)C(Cl)=C2O)C(O)=CC(O)=C1
INCHIKEY=IPUONOHBPFSQMA-UHFFFAOYSA-N
76.788643 142.0 
81.033119 182.0 
82.041786 313.0 
83.013382 320.0 
83.048782 125.0 
84.018997 288.0 
86.999016 507.0 
88.991707 182.0 
91.016594 137.0 
91.0438 200.0 
92.102936 279.0 
92.533234 284.0 
94.04409 222.0 
95.01432 154.0 
95.047165 166.0 
99.002014 267.0 
103.331558 176.0 
104.990112 212.0 
105.89492 278.0 
107.049606 129.0 
108.014381 733.0 
108.958427 236.0 
109.028008 418.0 
111.04631 365.0 
112.088264 70.0 
113.015839 108.0 
114.105957 141.0 
114.861115 300.0 
115.055 206.0 
118.071457 134.0 
119.014717 553.0 
120.020432 655.0 
120.052551 211.0 
120.086761 182.0 
121.026993 755.0 
122.039368 228.0 
123.013603 324.0 
123.04274 354.0 
123.361626 170.0 
124.04882 633.0 
125.026443 179.0 
125.060265 518.0 
126.034927 406.0 
126.995865 764.0 
127.978302 220.0 
128.06337 290.0 
128.992004 153.0 
133.028122 273.0 
133.067139 190.0 
134.997314 125.0 
135.043457 2198.0 
136.017044 5363.0 
137.023788 994.0 
137.139877 162.0 
137.574646 184.0 
138.032181 3824.0 
138.116623 218.0 
138.156143 98.0 
139.036407 353.0 
140.22644 105.0 
141.018234 563.0 
141.055511 988.0 
142.990295 220.0 
145.039612 215.0 
146.044785 234.0 
147.043518 82.0 
149.021698 959.0 
150.033218 1011.0 
150.726532 225.0 
151.039612 19799.0 
151.422836 120.0 
152.04248 627.0 
152.065628 473.0 
153.20137 338.0 
153.231842 113.0 
154.036041 401.0 
155.052124 413.0 
155.272186 213.0 
155.976059 195.0 
157.066406 530.0 
161.026489 216.0 
161.925446 82.0 
162.970169 93.0 
163.003448 179.0 
163.036621 567.0 
163.663803 86.0 
164.017776 285.0 
164.041122 143.0 
164.845184 224.0 
165.051743 229.0 
165.987381 214.0 
166.026917 4081.0 
167.024338 371.0 
167.06897 189.0 
168.055405 198.0 
168.392593 98.0 
169.065048 242.0 
169.583267 211.0 
170.034821 178.0 
170.985672 163.0 
171.045151 152.0 
171.965469 128.0 
175.038788 144.0 
175.28894 417.0 
177.018372 192.0 
177.554703 117.0 
178.03421 120.0 
178.92012 118.0 
179.032959 2997.0 
179.066711 204.0 
180.039963 298.0 
180.792542 203.0 
181.048309 2337.0 
181.826614 90.0 
183.050385 148.0 
184.037766 1100.0 
185.062897 374.0 
187.03717 412.0 
187.072113 339.0 
188.950775 317.0 
189.165619 117.0 
190.965134 429.0 
191.018463 686.0 
192.969574 176.0 
194.019791 1833.0 
195.028992 684.0 
196.055969 388.0 
196.726151 126.0 
197.057175 289.0 
198.045181 152.0 
198.069519 236.0 
198.947128 142.0 
199.040268 828.0 
200.022858 143.0 
200.048416 185.0 
201.009293 241.0 
202.028061 188.0 
202.958511 150.0 
202.985474 181.0 
203.036072 734.0 
203.967209 228.0 
204.008408 5105.0 
204.983688 218.0 
207.03508 410.0 
207.09433 227.0 
207.790756 154.0 
209.045929 59132.0 
209.366486 99.0 
209.462479 195.0 
209.817596 143.0 
210.012039 230.0 
210.050323 5590.0 
211.027405 160.0 
211.277328 135.0 
211.625946 143.0 
211.787491 107.0 
212.049835 211.0 
212.989502 155.0 
213.054993 1960.0 
213.933945 186.0 
214.064117 1567.0 
215.007034 459.0 
215.070786 124.0 
215.996078 359.0 
216.99617 132.0 
218.014633 429.0 
218.905304 139.0 
218.961868 5176.0 
219.030518 29724.0 
219.443512 181.0 
219.660629 91.0 
219.965271 267.0 
220.034317 1032.0 
220.13092 149.0 
220.957825 590.0 
221.037338 1138.0 
222.019608 4371.0 
222.205002 212.0 
223.023697 783.0 
223.070679 140.0 
224.05986 117.0 
225.055389 420.0 
225.776016 147.0 
226.045593 126.0 
227.035172 1618.0 
227.275177 102.0 
228.000854 91.0 
228.043015 298.0 
229.005783 530.0 
230.637894 111.0 
230.77179 168.0 
231.024902 417.0 
232.023239 170.0 
233.026855 154.0 
233.739624 89.0 
234.005157 911.0 
235.981964 300.0 
236.962997 212.0 
237.041199 21743.0 
237.759842 164.0 
238.044556 2545.0 
239.032822 117.0 
239.773621 333.0 
240.30722 310.0 
241.049667 2565.0 
242.056976 1727.0 
243.069565 1067.0 
245.005386 401.0 
246.023819 146.0 
247.019562 819.0 
249.033707 432.0 
250.039047 307.0 
251.038483 235.0 
251.974655 174.0 
252.040268 127.0 
253.015259 208.0 
253.05043 1072.0 
253.997116 288.0 
254.778183 103.0 
255.009781 193.0 
256.048157 360.0 
258.051178 135.0 
259.015076 521.0 
260.024323 987.0 
260.069916 397.0 
261.032501 400.0 
262.005829 2023.0 
263.012238 587.0 
264.009857 309.0 
264.949524 119.0 
266.345062 189.0 
266.971191 134.0 
269.003906 368.0 
269.046021 485.0 
270.054626 559.0 
271.061584 397.0 
272.061096 237.0 
272.898132 215.0 
273.993378 191.0 
274.768616 200.0 
275.014252 109.0 
276.021851 127.0 
276.663727 89.0 
276.874817 126.0 
276.954437 92.0 
277.027679 12834.0 
278.031769 2268.0 
278.996307 166.0 
279.02597 879.0 
279.756561 94.0 
280.980377 163.0 
281.493317 223.0 
281.987366 692.0 
282.985138 167.0 
284.003021 368.0 
284.973694 222.0 
287.013123 641.0 
287.609222 82.0 
288.019897 603.0 
289.025757 1167.0 
290.039642 100.0 
291.020752 383.0 
292.445099 109.0 
293.011688 139.0 
294.988861 449.0 
297.9422 123.0 
297.978912 623.0 
298.037933 257.0 
298.99411 280.0 
299.057739 149.0 
303.008606 796.0 
304.005554 219.0 
304.119598 152.0 
305.024048 3105.0 
306.031097 1122.0 
307.966949 269.0 
308.025146 169.0 
308.122253 230.0 
308.97995 130.0 
309.124115 149.0 
309.984406 568.0 
311.968536 125.0 
316.030853 364.0 
317.021393 232.0 
322.992493 1480.0 
323.970367 254.0 
323.99173 261.0 
324.998962 1695.0 
325.930328 94.0 
325.972656 388.0 
326.013367 271.0 
331.598663 105.0 
332.090881 92.0 
332.174622 154.0 
333.020935 967.0 
333.808411 99.0 
334.020752 875.0 
335.014008 205.0 
336.973816 198.0 
338.985535 162.0 
341.001068 616.0 
350.993317 344.0 
362.679321 266.0 
366.587311 89.0 
368.013428 196.0 
368.16098 100.0 
368.25769 111.0 
368.31488 145.0 
368.354126 185.0 
368.544556 139.0 
368.763824 234.0 
368.905457 528.0 
368.99469 75831.0 
369.862457 102.0 
369.998352 6232.0 
370.360901 89.0 
370.469025 96.0 
370.992004 2470.0 
372.065552 73.0 
372.122803 109.0 
372.221222 153.0 
372.522247 181.0 
372.601959 93.0 
372.673096 147.0 
373.504547 111.0 
401.032776 179.0 
1919.31665 204.0 
END IONS

BEGIN IONS
TITLE=Scan Number: 325
PEPMASS=504.17099
CHARGE=1+
MSLEVEL=2
FILENAME=C10_GC10_01_2622.mzXML
INSTRUMENT=ion trap
SCANS=325
SMILES=COC1CC(OC(O)C(O)C(O)C(O)C(O)CO)C2=C(OC1=O)C=C3C=C(C)OC(=O)C3=C2O
INCHIKEY=NSIUWPVISVFSGF-UHFFFAOYSA-N
79.821686 202.0 
83.012581 258.0 
85.029327 312.0 
88.279549 182.0 
92.974838 149.0 
93.071976 312.0 
94.838264 267.0 
103.646004 395.0 
104.39119 313.0 
105.030632 141.0 
105.804176 282.0 
129.01683 259.0 
129.068542 355.0 
130.080368 334.0 
135.367264 327.0 
145.062775 432.0 
149.128479 185.0 
151.034836 245.0 
158.732895 197.0 
160.81102 194.0 
162.985992 132.0 
163.038483 192.0 
166.433548 201.0 
168.053802 181.0 
169.313751 244.0 
171.722412 200.0 
173.059784 255.0 
174.065994 244.0 
175.072495 167.0 
183.043182 319.0 
184.039215 139.0 
185.06076 541.0 
187.039368 1586.0 
192.183548 231.0 
193.047226 354.0 
196.070786 237.0 
198.125336 195.0 
201.02536 112.0 
201.050705 893.0 
203.033646 210.0 
203.070358 222.0 
203.62117 246.0 
204.034912 97.0 
205.050583 2664.0 
206.050049 174.0 
210.818787 258.0 
211.010422 178.0 
211.041626 986.0 
212.036316 375.0 
214.211075 123.0 
215.031265 332.0 
216.038803 227.0 
217.009308 193.0 
217.04541 211.0 
218.837341 242.0 
219.031158 1227.0 
219.064117 4337.0 
219.798218 120.0 
220.072876 233.0 
220.372711 223.0 
220.922256 268.0 
221.017029 473.0 
221.043823 5427.0 
221.278229 87.0 
221.315933 178.0 
222.046692 654.0 
223.461273 120.0 
227.005005 110.0 
228.189728 100.0 
228.505585 164.0 
228.541626 195.0 
228.576996 86.0 
228.76442 132.0 
228.880539 151.0 
228.914627 227.0 
228.949692 427.0 
229.049316 113210.0 
229.138626 103.0 
229.516754 104.0 
229.584167 121.0 
229.699493 93.0 
229.964783 162.0 
230.052261 13352.0 
230.131332 84.0 
230.867783 84.0 
231.061523 1024.0 
231.605225 171.0 
231.838837 217.0 
232.850037 136.0 
233.043076 779.0 
234.042755 159.0 
237.04184 287.0 
240.06163 94.0 
243.061493 158.0 
244.582947 90.0 
245.047302 467.0 
245.126114 113.0 
245.653839 174.0 
247.057571 4387.0 
248.061432 812.0 
249.075699 557.0 
251.052307 132.0 
257.043365 11585.0 
257.974274 128.0 
258.04837 1724.0 
259.056366 93.0 
259.232147 212.0 
261.078552 128.0 
263.063141 350.0 
271.167389 165.0 
271.463837 222.0 
273.729248 150.0 
274.361694 108.0 
274.496094 101.0 
274.816528 136.0 
275.054932 68289.0 
275.993195 191.0 
276.058258 5678.0 
276.962708 153.0 
277.035339 137.0 
277.060974 281.0 
277.932556 119.0 
279.092987 207.0 
286.608673 74.0 
287.020538 853.0 
289.07431 382.0 
293.868591 237.0 
294.027893 866.0 
294.28894 218.0 
295.026215 163.0 
303.012634 203.0 
304.001862 199.0 
305.031158 2108.0 
305.171112 196.0 
306.031464 89.0 
307.080078 7575.0 
308.024445 187.0 
308.085388 980.0 
311.194977 150.0 
312.995728 142.0 
318.007721 138.0 
323.037628 506.0 
327.134857 203.0 
331.017365 171.0 
341.273285 225.0 
349.021973 847.0 
353.052429 133.0 
357.050201 123.0 
358.161072 182.0 
400.07959 194.0 
517.064575 116.0 
525.099243 143.0 
1794.285522 301.0 
END IONS

BEGIN IONS
TITLE=Scan Number: 326
PEPMASS=520.23297
CHARGE=1+
MSLEVEL=2
FILENAME=C10_GC10_01_2622.mzXML
INSTRUMENT=ion trap
SCANS=326
SMILES=CC(=C)[C@]1(O)CC[C@]2(C)[C@H](CC=C(C)[C@]23OC4=C([C@@H]3O)C(=O)OC(=C4)C5=CN=CC=C5)[C@@]16CCC(=O)OC6
INCHIKEY=GADSICAILMLRQB-GVRUMSNVSA-N
77.935371 270.0 
78.034164 5727.0 
78.099602 190.0 
78.230354 146.0 
78.769524 147.0 
79.054001 1950.0 
79.419754 365.0 
79.931389 335.0 
80.032127 170.0 
80.049484 3422.0 
80.430641 236.0 
81.03199 633.0 
81.070045 2949.0 
81.144341 244.0 
81.540756 64.0 
81.847992 65.0 
82.075127 184.0 
82.549942 334.0 
82.650894 65.0 
83.048004 1044.0 
83.080963 124.0 
83.280327 220.0 
83.716324 326.0 
84.341568 37.0 
84.754654 315.0 
85.064903 389.0 
85.279503 411.0 
85.2967 79.0 
85.45491 217.0 
85.937286 84.0 
86.52047 145.0 
86.748581 51.0 
86.959549 369.0 
88.061234 61.0 
88.382607 241.0 
88.44632 203.0 
88.546036 126.0 
89.949158 167.0 
90.007271 169.0 
90.936035 244.0 
91.05439 3897.0 
91.74929 267.0 
92.028893 180.0 
92.0485 2151.0 
93.069717 4447.0 
93.52623 90.0 
94.075821 347.0 
94.410667 275.0 
94.916901 318.0 
95.049187 1956.0 
95.085106 6071.0 
95.220161 159.0 
95.523705 281.0 
95.67849 144.0 
96.048203 2544.0 
96.091118 243.0 
96.228729 118.0 
96.903328 38.0 
97.026131 40.0 
97.065407 1745.0 
97.179428 57.0 
97.270042 195.0 
99.04377 278.0 
99.080605 733.0 
99.179932 190.0 
100.762238 51.0 
100.896271 193.0 
101.021423 875.0 
101.057327 168.0 
102.046677 297.0 
102.170502 206.0 
103.380051 67.0 
103.995674 385.0 
104.013985 377.0 
104.049408 8019.0 
104.503311 112.0 
105.070244 11869.0 
105.422737 78.0 
105.577248 71.0 
105.766144 131.0 
105.796616 84.0 
105.893425 168.0 
105.970215 84.0 
106.028976 76325.0 
106.070168 1271.0 
106.092827 168.0 
106.122559 45.0 
106.325851 154.0 
106.419495 110.0 
106.910667 180.0 
107.03186 4091.0 
107.085953 6442.0 
107.188416 61.0 
107.254051 43.0 
107.574104 152.0 
107.748306 316.0 
107.909172 233.0 
108.042473 752.0 
108.089668 923.0 
108.262344 261.0 
108.368347 262.0 
109.029709 494.0 
109.065361 2618.0 
109.100693 881.0 
109.896545 141.0 
110.053978 188.0 
110.106186 182.0 
110.476257 323.0 
111.027817 376.0 
111.045135 415.0 
111.079834 138.0 
112.073975 249.0 
112.476707 143.0 
112.906082 180.0 
112.943985 51.0 
113.026413 220.0 
113.062126 180.0 
114.107452 124.0 
115.065361 303.0 
116.124992 213.0 
116.36937 328.0 
116.950798 138.0 
116.971031 120.0 
117.063568 1241.0 
117.096123 46.0 
118.046494 242.0 
118.06678 545.0 
118.213928 194.0 
118.237434 155.0 
119.051582 1193.0 
119.085999 19498.0 
119.716049 78.0 
119.920235 304.0 
120.008438 213.0 
120.04464 5820.0 
120.088333 825.0 
120.428757 168.0 
120.891525 135.0 
121.03183 106.0 
121.063751 3897.0 
121.101585 6271.0 
121.426643 215.0 
121.692322 36.0 
121.769821 237.0 
121.807518 98.0 
121.863708 124.0 
122.060295 49327.0 
122.104889 761.0 
122.222282 263.0 
122.575287 283.0 
122.693047 193.0 
123.043198 1273.0 
123.064613 4778.0 
123.080261 5337.0 
123.116455 361.0 
123.188362 126.0 
123.449669 141.0 
123.686897 57.0 
123.781166 113.0 
123.952133 23.0 
123.995445 114.0 
124.039688 3133.0 
124.081131 450.0 
124.485016 113.0 
125.059357 1713.0 
125.096382 1108.0 
126.026237 126.0 
126.063744 351.0 
126.101105 116.0 
126.538765 319.0 
126.984482 245.0 
127.05748 413.0 
127.074928 780.0 
128.062805 1376.0 
128.643692 128.0 
128.884155 177.0 
129.069275 2328.0 
130.029297 1806.0 
130.081009 746.0 
130.441132 333.0 
131.055115 487.0 
131.08577 8162.0 
132.045959 858.0 
132.088486 821.0 
132.393509 431.0 
132.761353 189.0 
133.023712 794.0 
133.054703 4006.0 
133.101303 8254.0 
134.059006 4514.0 
134.104446 1048.0 
134.291855 302.0 
135.04567 2530.0 
135.072632 5040.0 
135.117111 1661.0 
135.577087 266.0 
136.083374 558.0 
136.8228 136.0 
136.893982 102.0 
137.006699 236.0 
137.032944 309.0 
137.05864 1924.0 
137.096664 1504.0 
137.20311 51.0 
138.063263 144.0 
139.001205 207.0 
139.03949 200.0 
139.076508 261.0 
139.915527 74.0 
140.05983 157.0 
140.736404 79.0 
141.070755 1645.0 
141.091476 925.0 
141.785507 73.0 
142.045975 476.0 
142.078629 2107.0 
142.434738 234.0 
142.942398 234.0 
143.041458 393.0 
143.084763 7974.0 
144.047256 839.0 
144.090866 2605.0 
145.025558 220.0 
145.056885 3051.0 
145.102051 9359.0 
145.380692 383.0 
145.446976 60.0 
145.481934 198.0 
145.543564 119.0 
145.824905 32.0 
146.059418 1961.0 
146.105194 2344.0 
146.3078 98.0 
146.72023 209.0 
146.834549 177.0 
147.047211 128.0 
147.081299 4460.0 
147.117996 6375.0 
147.255402 141.0 
147.33165 140.0 
147.35466 175.0 
147.47377 66.0 
147.491348 176.0 
147.533844 76.0 
147.56459 143.0 
147.684341 156.0 
147.699707 322.0 
147.723892 296.0 
147.749237 35.0 
147.771194 47.0 
147.850677 628.0 
147.910507 182.0 
147.929916 314.0 
147.94986 130.0 
147.987137 2816.0 
148.039673 584413.0 
148.079987 461.0 
148.121658 783.0 
148.15416 173.0 
148.183273 437.0 
148.2173 204.0 
148.247421 302.0 
148.299667 321.0 
148.330719 222.0 
148.373413 74.0 
148.401794 203.0 
148.433823 60.0 
148.454422 160.0 
148.495773 125.0 
148.520462 241.0 
148.538925 249.0 
148.596771 193.0 
148.627319 338.0 
148.656265 127.0 
148.69455 69.0 
148.759506 237.0 
148.828888 161.0 
148.876175 279.0 
148.979202 53.0 
149.042389 44029.0 
149.099289 1185.0 
149.130585 160.0 
149.178238 60.0 
149.460098 65.0 
149.505157 147.0 
149.594406 29.0 
149.708862 59.0 
149.975769 197.0 
149.99968 168.0 
150.044052 2884.0 
150.07637 61.0 
150.106583 219.0 
150.132233 97.0 
150.15947 94.0 
150.205521 269.0 
150.241974 152.0 
150.267685 266.0 
150.308487 111.0 
150.331818 177.0 
150.37944 114.0 
150.406769 119.0 
150.432892 85.0 
150.496796 70.0 
150.647186 186.0 
150.672562 109.0 
150.749664 210.0 
151.038116 1013.0 
151.080978 1098.0 
151.113815 130.0 
151.150009 121.0 
151.254028 167.0 
151.300476 154.0 
151.414215 186.0 
151.592606 96.0 
152.064362 586.0 
152.340439 45.0 
152.440826 64.0 
152.785172 202.0 
153.008163 178.0 
153.053421 707.0 
153.624176 92.0 
154.073944 440.0 
154.355408 123.0 
155.017548 247.0 
155.036682 221.0 
155.060089 719.0 
155.08638 2926.0 
155.384689 34.0 
155.556656 261.0 
156.011566 185.0 
156.053421 239.0 
156.093338 3932.0 
156.173294 152.0 
156.545441 364.0 
156.611938 110.0 
156.783997 57.0 
156.818726 46.0 
157.016861 209.0 
157.066635 1133.0 
157.10202 14892.0 
157.370285 36.0 
157.435806 330.0 
157.532654 108.0 
157.901169 75.0 
158.071991 774.0 
158.106033 2344.0 
158.598495 45.0 
158.755356 109.0 
158.997574 68.0 
159.019669 197.0 
159.045486 774.0 
159.080734 4689.0 
159.117371 8143.0 
159.660233 26.0 
159.715668 112.0 
160.039856 2593.0 
160.082581 710.0 
160.11499 429.0 
160.278381 66.0 
160.390259 50.0 
160.792923 49.0 
160.846436 194.0 
161.058853 1314.0 
161.097916 5078.0 
161.131638 905.0 
161.933929 85.0 
162.056259 5466.0 
162.10762 379.0 
162.135025 203.0 
162.171402 39.0 
162.253052 70.0 
162.756744 156.0 
163.009109 402.0 
163.038589 1657.0 
163.066238 4522.0 
163.112335 1341.0 
163.144257 221.0 
163.203491 184.0 
163.510223 45.0 
163.534576 182.0 
163.93042 50.0 
164.040833 97.0 
164.06665 802.0 
165.06691 1477.0 
165.09111 1347.0 
165.126602 226.0 
165.378601 138.0 
166.051453 651.0 
166.079514 1046.0 
167.027267 198.0 
167.063614 391.0 
167.08786 1611.0 
168.092514 2042.0 
169.065536 815.0 
169.102173 10431.0 
169.332535 151.0 
170.047501 93.0 
170.07077 874.0 
170.108475 4454.0 
170.176315 25.0 
171.048096 264.0 
171.079803 1702.0 
171.11763 9656.0 
172.040451 1818.0 
172.084824 749.0 
172.122009 1902.0 
173.04924 3646.0 
173.097092 4435.0 
173.132675 3663.0 
174.023621 127.0 
174.054459 2922.0 
174.105469 526.0 
174.134323 692.0 
175.040527 812.0 
175.072311 2301.0 
175.111389 2440.0 
175.152832 408.0 
176.042511 342.0 
176.069748 662.0 
176.123917 358.0 
176.151398 187.0 
176.502838 76.0 
177.016479 156.0 
177.056595 997.0 
177.090775 1651.0 
177.140411 228.0 
178.049332 1023.0 
178.077316 508.0 
178.356934 219.0 
179.032944 373.0 
179.107681 1776.0 
179.31456 43.0 
180.096268 1572.0 
181.022705 628.0 
181.055481 2220.0 
181.10228 3634.0 
181.763657 93.0 
182.070557 182.0 
182.105408 826.0 
182.572342 105.0 
183.082977 1976.0 
183.1185 9017.0 
183.278473 33.0 
184.045349 153.0 
184.088531 482.0 
184.121063 2720.0 
185.059921 1353.0 
185.096649 4880.0 
185.13327 5529.0 
186.075409 231.0 
186.100296 614.0 
186.134369 303.0 
187.040817 509.0 
187.074753 1325.0 
187.112625 4342.0 
187.147644 1605.0 
187.188431 41.0 
187.970856 217.0 
188.033813 433.0 
188.077789 918.0 
188.116409 852.0 
188.349213 25.0 
188.423019 180.0 
188.456192 94.0 
189.008514 125.0 
189.063324 1077.0 
189.092468 2819.0 
189.127228 1717.0 
189.163406 171.0 
190.005768 322.0 
190.050232 15731.0 
190.136826 169.0 
190.166763 76.0 
190.54068 206.0 
190.988205 167.0 
191.057785 3520.0 
191.108093 830.0 
191.143875 222.0 
192.061554 789.0 
192.093246 704.0 
192.144104 144.0 
193.052734 347.0 
193.101639 3853.0 
194.107681 1954.0 
194.957062 108.0 
195.086914 1158.0 
195.117111 4536.0 
195.310471 29.0 
195.625244 110.0 
196.090714 801.0 
196.122818 1908.0 
196.38443 61.0 
197.045807 121.0 
197.096313 2391.0 
197.131332 5178.0 
197.17836 205.0 
197.452194 252.0 
197.498779 35.0 
197.614227 85.0 
197.772629 250.0 
198.097931 786.0 
198.134781 1169.0 
198.769989 82.0 
199.076462 2357.0 
199.113266 3431.0 
199.147751 1527.0 
199.464371 88.0 
200.035202 342.0 
200.074783 280.0 
200.115601 647.0 
200.151245 382.0 
200.563065 100.0 
200.639679 160.0 
200.846268 128.0 
201.055405 652.0 
201.092773 1578.0 
201.129578 4157.0 
201.1978 71.0 
201.477707 54.0 
201.978882 167.0 
202.050613 17029.0 
202.094635 629.0 
202.131378 643.0 
202.279221 74.0 
203.05542 1866.0 
203.105255 1213.0 
203.49353 52.0 
204.05658 302.0 
204.082718 474.0 
204.160416 144.0 
204.244766 77.0 
204.830597 242.0 
204.928757 234.0 
205.00531 92.0 
205.04277 417.0 
205.100388 1450.0 
205.708038 180.0 
206.04567 812.0 
206.108734 1654.0 
206.676224 177.0 
207.074005 730.0 
207.117477 4083.0 
207.338882 54.0 
207.407349 54.0 
208.082855 785.0 
208.126602 2283.0 
209.05397 46.0 
209.097382 1933.0 
209.132599 3427.0 
209.32457 152.0 
209.45726 89.0 
209.509995 166.0 
210.048386 169.0 
210.103302 1121.0 
210.139252 2624.0 
210.667084 86.0 
211.073685 1691.0 
211.11087 2463.0 
211.148621 3567.0 
212.034225 175.0 
212.076431 725.0 
212.120453 905.0 
212.155106 721.0 
212.23201 37.0 
212.410324 85.0 
212.536804 115.0 
213.006363 157.0 
213.056702 644.0 
213.09082 2347.0 
213.128723 2924.0 
213.161835 731.0 
213.194839 67.0 
213.392471 100.0 
214.054703 170.0 
214.088013 997.0 
214.53656 186.0 
214.618988 228.0 
214.806076 114.0 
215.073746 2062.0 
215.108475 836.0 
215.149521 940.0 
215.179077 321.0 
215.244751 159.0 
215.547043 261.0 
215.588791 74.0 
215.801331 81.0 
215.927277 249.0 
215.98735 350.0 
216.029861 66109.0 
216.067459 1489.0 
216.103287 283.0 
216.149597 392.0 
216.293457 89.0 
216.46376 159.0 
216.645508 154.0 
216.804474 175.0 
216.984085 51.0 
217.032776 6385.0 
217.083069 960.0 
217.119507 1466.0 
217.155746 136.0 
217.211945 168.0 
217.240799 83.0 
217.730316 153.0 
217.760788 214.0 
217.863403 210.0 
217.991058 553.0 
218.045624 61790.0 
218.104858 248.0 
218.158585 176.0 
218.216202 33.0 
218.235062 57.0 
218.28244 113.0 
218.310669 62.0 
218.48378 123.0 
218.521301 131.0 
218.623306 176.0 
218.756073 196.0 
218.781616 171.0 
218.939102 40.0 
219.052246 32422.0 
219.136429 1655.0 
219.171906 68.0 
219.188293 82.0 
220.060608 3260.0 
220.12677 1506.0 
220.509628 220.0 
221.05632 668.0 
221.097595 1337.0 
221.13591 2954.0 
221.343475 39.0 
222.067108 149.0 
222.102188 663.0 
222.139359 983.0 
222.923492 91.0 
223.111908 1633.0 
223.149338 2133.0 
223.249222 101.0 
224.085953 240.0 
224.115875 1482.0 
224.154648 965.0 
224.661606 83.0 
224.836029 185.0 
225.055939 1019.0 
225.093597 1376.0 
225.127899 3347.0 
225.163193 2898.0 
225.811249 136.0 
226.059158 732.0 
226.092896 724.0 
226.132568 718.0 
226.167191 669.0 
226.233688 53.0 
226.982651 270.0 
227.066238 202.0 
227.107086 1595.0 
227.143021 2084.0 
227.180893 334.0 
227.274811 266.0 
227.866089 71.0 
227.959534 157.0 
228.063232 1028.0 
228.106827 211.0 
228.147232 288.0 
228.438477 106.0 
229.081009 893.0 
229.1259 1539.0 
229.312531 98.0 
230.045868 447.0 
230.090225 962.0 
230.130417 348.0 
230.158951 205.0 
230.27536 47.0 
230.923965 82.0 
231.016449 106.0 
231.117264 1264.0 
231.140366 791.0 
231.175552 134.0 
232.05545 454.0 
232.125031 1148.0 
232.29834 158.0 
232.333405 148.0 
233.0979 1326.0 
233.136414 1773.0 
233.230759 77.0 
233.582733 38.0 
234.039993 39934.0 
234.10321 735.0 
234.134064 281.0 
234.431992 47.0 
234.728729 59.0 
235.044205 6014.0 
235.109604 2924.0 
235.148315 2921.0 
235.407928 100.0 
235.733429 60.0 
236.080048 261.0 
236.118088 1112.0 
236.149216 878.0 
236.411667 116.0 
236.527863 82.0 
236.791946 80.0 
237.060486 460.0 
237.095612 2210.0 
237.132889 1630.0 
237.162003 681.0 
237.473236 69.0 
238.08989 1642.0 
238.857239 375.0 
239.076462 848.0 
239.106705 2168.0 
239.140228 824.0 
239.179276 1094.0 
240.064667 2053.0 
240.107864 1045.0 
240.146057 189.0 
240.867874 110.0 
241.086807 1486.0 
241.127686 830.0 
241.186203 131.0 
241.39357 39.0 
241.48877 125.0 
241.546448 56.0 
241.624802 103.0 
242.084656 1842.0 
242.126541 138.0 
242.200577 116.0 
243.069168 872.0 
243.137726 1825.0 
244.063751 832.0 
244.097626 696.0 
244.12886 658.0 
244.51445 100.0 
245.067169 600.0 
245.137405 787.0 
246.073837 162.0 
246.123138 575.0 
247.043015 114.0 
247.06488 97.0 
247.109863 1822.0 
247.14917 1825.0 
248.074493 370.0 
248.121994 740.0 
248.150406 348.0 
249.091446 1114.0 
249.124954 1494.0 
249.169174 3442.0 
250.031326 250.0 
250.097733 455.0 
250.119141 560.0 
250.169281 302.0 
251.078491 231.0 
251.111206 440.0 
251.14801 757.0 
251.17868 1090.0 
252.041183 341.0 
252.114792 854.0 
252.142624 488.0 
253.085342 1526.0 
253.121826 2518.0 
253.160049 1761.0 
253.24437 38.0 
254.043213 93.0 
254.080505 1128.0 
254.124115 756.0 
254.161865 79.0 
254.948181 252.0 
255.100983 1426.0 
255.14827 168.0 
255.178329 551.0 
255.55687 33.0 
256.062897 238.0 
256.089844 161.0 
256.121948 496.0 
256.184509 188.0 
257.101471 753.0 
257.130585 1148.0 
257.157288 2125.0 
257.929169 262.0 
258.077515 1779.0 
258.132782 311.0 
259.094849 708.0 
259.158295 757.0 
259.212738 172.0 
259.625977 220.0 
260.088257 703.0 
260.118073 789.0 
260.696655 83.0 
260.88739 103.0 
260.94928 136.0 
261.04953 200.0 
261.092987 172.0 
261.126221 1090.0 
261.167358 445.0 
261.314728 76.0 
262.028595 65.0 
262.102203 407.0 
262.136414 370.0 
262.63205 54.0 
262.847778 138.0 
263.108673 764.0 
263.148224 1288.0 
263.176819 643.0 
263.872498 217.0 
263.995453 144.0 
264.077209 362.0 
264.102112 479.0 
264.147369 443.0 
264.399811 163.0 
264.490875 108.0 
265.086395 742.0 
265.1297 919.0 
265.160522 2314.0 
265.847656 146.0 
266.028748 172.0 
266.082245 3024.0 
266.117493 1217.0 
266.169128 108.0 
266.394897 98.0 
266.569672 142.0 
267.079773 295.0 
267.105682 952.0 
267.141632 1585.0 
267.176483 2539.0 
268.058868 745.0 
268.117188 336.0 
268.144867 204.0 
268.176392 725.0 
269.114502 721.0 
269.152313 517.0 
269.189911 1296.0 
270.032257 199.0 
270.078064 1757.0 
270.172852 255.0 
271.111481 1130.0 
271.138855 1097.0 
271.17157 1324.0 
272.096375 734.0 
272.135925 211.0 
272.182251 243.0 
272.562012 192.0 
273.000763 213.0 
273.079468 279.0 
273.105133 454.0 
273.124176 460.0 
273.163208 751.0 
273.19162 173.0 
274.079559 151.0 
274.115509 346.0 
274.140533 586.0 
274.163452 362.0 
275.110138 1356.0 
275.148987 1200.0 
275.956818 31.0 
276.109924 525.0 
276.149628 514.0 
276.165436 518.0 
277.080963 273.0 
277.128296 1843.0 
277.160004 2646.0 
277.194366 196.0 
278.080872 820.0 
278.123016 969.0 
278.166443 415.0 
279.000702 203.0 
279.102478 974.0 
279.17038 255.0 
280.053986 26.0 
280.11972 876.0 
281.076447 284.0 
281.118591 927.0 
281.152679 438.0 
282.080536 782.0 
282.147217 69.0 
282.207001 163.0 
282.855133 128.0 
282.892365 95.0 
283.046143 58.0 
283.136078 1344.0 
283.168518 835.0 
283.302429 55.0 
284.092468 8610.0 
284.133484 362.0 
284.18457 201.0 
284.480713 103.0 
284.503418 82.0 
284.634491 50.0 
285.093811 1555.0 
285.125671 488.0 
285.182251 1365.0 
285.949127 93.0 
286.035522 244.0 
286.090363 214.0 
286.120148 127.0 
286.188385 501.0 
286.916901 53.0 
287.063507 184.0 
287.113708 221.0 
287.157257 462.0 
287.197723 1177.0 
289.094208 383.0 
289.128021 1551.0 
289.160004 716.0 
290.080048 699.0 
290.12149 593.0 
290.164856 264.0 
291.101562 197.0 
291.134979 1132.0 
291.177216 676.0 
292.096222 658.0 
292.138733 459.0 
292.189484 550.0 
293.117371 1269.0 
293.186646 443.0 
293.317719 58.0 
294.115265 1188.0 
294.695099 228.0 
295.1362 1328.0 
295.172089 4075.0 
296.093079 1386.0 
296.17041 746.0 
297.109436 1564.0 
297.157196 210.0 
297.191162 299.0 
298.075439 180.0 
298.111511 791.0 
299.115479 640.0 
299.135162 642.0 
300.109467 311.0 
300.403137 47.0 
300.845276 103.0 
300.896515 31.0 
301.081177 257.0 
301.133026 428.0 
301.156433 835.0 
301.805786 120.0 
302.105408 435.0 
302.133392 568.0 
302.162506 294.0 
302.713806 113.0 
303.098236 444.0 
303.133545 1151.0 
303.35907 96.0 
303.740204 192.0 
304.091187 407.0 
304.136322 1367.0 
305.087463 141.0 
305.121796 89.0 
305.159149 729.0 
305.210297 475.0 
305.246704 65.0 
305.374084 93.0 
306.086365 388.0 
306.117065 1626.0 
306.16095 384.0 
306.815033 37.0 
307.093323 90.0 
307.122437 269.0 
307.16571 1268.0 
307.313904 159.0 
307.450592 23.0 
308.095886 185.0 
308.130585 460.0 
309.112335 1021.0 
309.147736 739.0 
309.186798 974.0 
310.109161 899.0 
310.151947 426.0 
310.19165 164.0 
311.100159 665.0 
311.162292 269.0 
311.19458 124.0 
311.53244 69.0 
312.128479 1000.0 
313.130524 583.0 
313.180786 3287.0 
314.11972 130.0 
314.182648 799.0 
314.727692 211.0 
315.049561 183.0 
315.073944 120.0 
315.13089 451.0 
316.096527 143.0 
316.133881 187.0 
316.165588 223.0 
316.371521 59.0 
317.153381 1730.0 
317.875275 132.0 
318.115753 1245.0 
318.155182 1599.0 
319.167938 1319.0 
320.077362 216.0 
320.134308 482.0 
320.171448 203.0 
320.957214 116.0 
321.090576 259.0 
321.151825 2587.0 
322.018005 204.0 
322.110931 1524.0 
322.146118 407.0 
323.095978 293.0 
323.132263 342.0 
323.158813 278.0 
324.122772 680.0 
325.121338 565.0 
325.180939 386.0 
326.107117 97.0 
326.181213 174.0 
327.025909 154.0 
327.1427 523.0 
328.089417 34.0 
328.182739 287.0 
329.142181 515.0 
330.108795 294.0 
330.169006 463.0 
331.126465 136.0 
331.189728 359.0 
332.130463 1089.0 
333.15683 827.0 
334.108124 2132.0 
334.152466 593.0 
334.182892 176.0 
335.105591 791.0 
335.164642 2394.0 
336.134521 1334.0 
336.166656 1076.0 
337.178772 2215.0 
338.13678 870.0 
338.185913 372.0 
339.126526 511.0 
339.164917 483.0 
340.086945 124.0 
340.121216 193.0 
341.560913 107.0 
342.15387 279.0 
343.177917 138.0 
344.127869 676.0 
344.185394 269.0 
345.148438 1760.0 
345.836151 112.0 
346.109711 413.0 
346.143097 1039.0 
347.12262 537.0 
348.134369 868.0 
349.141541 335.0 
350.138397 458.0 
351.124969 328.0 
351.163086 110.0 
351.476868 173.0 
352.081848 185.0 
352.14267 344.0 
352.201996 137.0 
353.138519 210.0 
353.173889 236.0 
353.605865 391.0 
353.88443 159.0 
354.100159 120.0 
355.148346 161.0 
355.189575 1070.0 
355.503143 82.0 
356.127594 346.0 
356.18866 142.0 
357.139435 155.0 
358.145447 787.0 
358.185883 127.0 
359.11853 185.0 
359.148987 284.0 
360.118317 612.0 
360.152039 468.0 
362.141663 339.0 
363.16095 6510.0 
363.583527 26.0 
363.753265 278.0 
364.119415 1090.0 
364.162354 1263.0 
364.226624 33.0 
364.424133 52.0 
365.124908 229.0 
365.175629 133.0 
366.133453 321.0 
366.849518 207.0 
368.164459 92.0 
370.091003 197.0 
370.145233 375.0 
370.178558 118.0 
372.125885 170.0 
372.166168 295.0 
373.135223 107.0 
373.202423 373.0 
374.131561 318.0 
375.144501 154.0 
376.114807 222.0 
376.156342 340.0 
377.164062 355.0 
378.152435 635.0 
379.140411 271.0 
380.153503 679.0 
380.186981 146.0 
380.503296 137.0 
380.95224 81.0 
381.128693 160.0 
381.171387 2563.0 
382.135071 403.0 
382.176697 1361.0 
383.147278 84.0 
384.074585 325.0 
384.158295 576.0 
384.205017 168.0 
384.987427 203.0 
386.137817 291.0 
386.185455 137.0 
388.153687 631.0 
388.689026 249.0 
390.125946 254.0 
390.17395 192.0 
392.158417 238.0 
392.201965 281.0 
393.208923 149.0 
394.122681 76.0 
394.181671 289.0 
395.177795 178.0 
395.721832 87.0 
396.152466 396.0 
396.196777 290.0 
397.166199 134.0 
398.18161 251.0 
398.209076 248.0 
399.142761 406.0 
399.180359 481.0 
399.371704 127.0 
400.163239 1414.0 
402.143433 563.0 
402.167633 559.0 
403.166229 284.0 
404.148743 355.0 
404.186554 833.0 
405.193481 534.0 
405.362671 222.0 
406.165649 632.0 
407.121796 136.0 
407.160919 335.0 
408.160767 287.0 
409.173492 284.0 
410.179871 657.0 
410.216522 448.0 
410.622284 23.0 
411.18808 347.0 
412.204926 268.0 
412.874176 168.0 
415.184692 109.0 
416.153992 149.0 
418.164673 737.0 
419.169159 137.0 
420.153381 121.0 
420.196106 194.0 
421.207214 139.0 
422.197113 77.0 
423.145477 214.0 
424.065552 133.0 
424.159668 160.0 
424.197449 789.0 
425.191223 72.0 
426.168915 192.0 
426.204254 145.0 
428.121002 202.0 
428.194489 400.0 
428.226715 589.0 
428.272614 176.0 
429.156677 350.0 
429.214417 145.0 
430.129791 149.0 
430.16449 209.0 
430.229736 474.0 
431.217834 486.0 
432.168488 132.0 
432.626892 229.0 
433.045685 88.0 
433.1716 279.0 
434.164886 155.0 
434.993347 81.0 
435.15921 155.0 
435.193878 56.0 
436.19397 395.0 
438.173553 116.0 
438.210052 1064.0 
439.206055 164.0 
440.208618 436.0 
441.15152 127.0 
441.19751 165.0 
441.229126 133.0 
441.867157 48.0 
442.060181 170.0 
442.208649 1494.0 
443.014709 24.0 
443.208771 137.0 
444.186981 286.0 
444.225922 221.0 
446.148926 438.0 
446.221741 112.0 
448.183899 454.0 
449.919281 132.0 
452.18396 139.0 
454.20694 464.0 
455.182373 175.0 
455.254272 72.0 
456.215393 1710.0 
457.217102 479.0 
458.233551 1212.0 
459.196136 115.0 
459.245911 191.0 
459.607025 218.0 
460.161621 138.0 
461.180267 109.0 
461.219238 68.0 
463.803192 218.0 
464.59201 72.0 
465.787781 86.0 
466.204041 2047.0 
466.858368 27.0 
467.195831 227.0 
467.232422 130.0 
468.212585 187.0 
469.282806 230.0 
472.210724 2767.0 
473.214264 509.0 
474.232361 1147.0 
475.252258 213.0 
476.250122 613.0 
477.589569 198.0 
477.659485 38.0 
478.184143 203.0 
484.214783 7118.0 
485.215454 2695.0 
486.207031 143.0 
489.682556 141.0 
492.233765 1041.0 
493.248535 472.0 
497.501221 163.0 
499.802521 155.0 
500.245972 86.0 
501.597321 45.0 
501.837128 152.0 
502.063507 206.0 
502.108429 841.0 
502.223236 27356.0 
502.294403 106.0 
503.017242 77.0 
503.228088 5641.0 
503.316223 109.0 
503.979614 112.0 
504.245209 724.0 
504.49118 47.0 
504.97406 38.0 
505.667786 130.0 
506.142609 26.0 
506.203888 79.0 
506.718109 50.0 
511.275726 209.0 
512.321411 204.0 
512.560852 95.0 
512.672852 213.0 
513.294067 114.0 
514.712524 159.0 
517.850403 194.0 
518.169312 101.0 
518.241638 82.0 
518.427429 84.0 
518.61554 156.0 
518.679199 68.0 
518.744385 112.0 
518.819214 73.0 
518.859619 42.0 
518.893555 133.0 
518.922302 201.0 
518.967896 54.0 
519.019836 161.0 
519.075195 146.0 
519.179077 407.0 
519.224792 180.0 
519.315186 396.0 
519.447693 285.0 
519.51123 47.0 
519.582947 399.0 
519.826782 224.0 
519.960327 263.0 
520.009705 462.0 
520.064331 535.0 
520.12793 3013.0 
520.235596 223583.0 
520.374084 111.0 
520.442078 45.0 
520.511597 278.0 
520.588928 100.0 
520.662659 58.0 
520.731262 274.0 
520.781006 167.0 
520.817017 271.0 
520.942261 223.0 
521.020081 56.0 
521.051575 86.0 
521.141907 631.0 
521.238464 57508.0 
521.304016 301.0 
521.3927 116.0 
521.525757 191.0 
521.60376 156.0 
521.670349 104.0 
521.757996 96.0 
521.842712 162.0 
521.893921 67.0 
521.971863 26.0 
522.023621 148.0 
522.167114 183.0 
522.244934 4151.0 
522.558289 161.0 
522.623474 135.0 
522.756653 42.0 
523.155151 92.0 
523.239563 235.0 
523.38208 35.0 
523.45636 120.0 
523.563416 82.0 
523.797058 93.0 
523.853455 223.0 
523.941589 114.0 
523.999023 65.0 
524.078186 216.0 
524.213257 68.0 
524.261169 92.0 
524.360535 108.0 
524.420959 101.0 
524.468872 91.0 
524.512878 36.0 
524.627075 216.0 
524.645996 184.0 
524.795898 92.0 
524.829346 77.0 
525.420532 130.0 
525.694275 88.0 
526.216675 46.0 
526.293152 48.0 
529.048889 36.0 
535.781982 75.0 
536.983643 61.0 
537.389648 153.0 
537.561523 122.0 
544.085388 69.0 
545.497986 56.0 
548.53656 138.0 
549.326477 124.0 
561.263733 304.0 
703.53186 27.0 
718.321777 69.0 
778.516907 67.0 
848.424072 203.0 
878.262329 306.0 
944.780945 78.0 
1211.782104 47.0 
1238.647217 140.0 
1444.781616 118.0 
1537.653198 219.0 
1567.621582 192.0 
1595.841064 163.0 
1608.712524 271.0 
1650.275757 404.0 
1667.523071 206.0 
1692.970581 237.0 
1735.561523 270.0 
1757.529175 266.0 
1761.087646 228.0 
1764.609497 210.0 
1769.306885 282.0 
1779.717041 31.0 
1784.333008 224.0 
1806.20105 28.0 
1812.77063 243.0 
1844.532471 174.0 
1875.896484 101.0 
1884.816284 185.0 
1889.620117 243.0 
1945.553833 219.0 
1952.450562 236.0 
1959.52002 274.0 
1962.307373 144.0 
1990.14563 405.0 
1992.063232 216.0 
1994.454102 205.0 
END IONS

BEGIN IONS
TITLE=Scan Number: 328
PEPMASS=581.18597
CHARGE=1+
MSLEVEL=2
FILENAME=C10_GC10_01_2622.mzXML
INSTRUMENT=ion trap
SCANS=328
SMILES=C[C@@H]1O[C@@H](OC[C@H]2O[C@H]([C@H](O)[C@@H](O)[C@@H]2O)C3=C(O)C=C4O[C@@H](CC(=O)C4=C3O)C5=CC=C(O)C=C5)[C@H](O)[C@H](O)[C@H]1O
INCHIKEY=HFSJWNXFQYKQNX-GTTIYPEBSA-N
75.045998 415.0 
79.754219 241.0 
84.797691 240.0 
85.028389 10551.0 
86.03064 381.0 
88.337143 214.0 
93.030731 151.0 
101.060112 560.0 
103.025002 142.0 
107.049492 420.0 
107.896111 120.0 
109.0252 678.0 
111.00724 161.0 
111.042862 170.0 
112.750931 271.0 
114.621681 123.0 
116.59481 180.0 
121.027626 451.0 
123.008911 153.0 
123.042595 540.0 
125.029854 359.0 
127.040741 129.0 
129.054214 2501.0 
130.054428 141.0 
135.046951 120.0 
137.031845 155.0 
139.034805 504.0 
140.009949 98.0 
141.017975 169.0 
141.050812 167.0 
142.60054 219.0 
147.00322 102.0 
147.043152 1652.0 
147.066605 1060.0 
148.044662 317.0 
148.197876 166.0 
148.996216 275.0 
149.050186 228.0 
151.037201 476.0 
152.042709 230.0 
153.019608 3184.0 
159.041809 144.0 
161.024246 131.0 
161.111206 148.0 
163.038162 566.0 
163.840317 234.0 
164.89032 101.0 
165.017532 9657.0 
165.051468 396.0 
165.222794 100.0 
166.022919 1039.0 
166.178177 134.0 
166.990189 104.0 
167.038879 169.0 
167.579254 206.0 
167.914383 163.0 
168.114792 231.0 
169.038101 160.0 
171.027313 372.0 
171.063095 122.0 
175.007462 128.0 
175.04158 353.0 
177.017807 3288.0 
178.021759 531.0 
178.553345 249.0 
179.026932 464.0 
181.054428 213.0 
183.030853 2373.0 
184.033234 615.0 
184.720764 206.0 
185.666534 158.0 
187.039505 130.0 
188.04155 176.0 
189.014893 1139.0 
189.051208 127.0 
191.004898 325.0 
191.034302 7360.0 
192.038284 192.0 
193.044678 106.0 
193.097198 130.0 
193.710236 162.0 
194.039017 173.0 
194.804367 169.0 
194.929352 123.0 
194.972168 434.0 
195.029495 56672.0 
195.656693 80.0 
196.031631 3429.0 
197.029022 175.0 
197.06366 166.0 
199.021606 160.0 
200.991913 225.0 
201.019821 285.0 
202.020386 126.0 
203.024139 541.0 
205.020432 219.0 
205.051224 863.0 
207.028427 785.0 
208.033859 439.0 
209.005753 303.0 
209.041061 327.0 
212.080154 186.0 
213.040329 344.0 
214.95726 204.0 
215.037811 1043.0 
216.035553 157.0 
217.010727 404.0 
218.055298 105.0 
219.028091 16983.0 
220.033981 1328.0 
221.036591 452.0 
221.466354 170.0 
221.811493 130.0 
221.840591 140.0 
223.630783 170.0 
231.028336 10077.0 
231.084564 414.0 
232.032196 1946.0 
233.046371 1075.0 
237.038757 1463.0 
238.04805 130.0 
239.033112 341.0 
243.028824 3182.0 
244.024292 369.0 
246.582245 204.0 
247.299026 247.0 
248.430603 94.0 
248.906265 262.0 
249.041504 1576.0 
249.096512 311.0 
249.380997 155.0 
250.042511 189.0 
251.066147 191.0 
255.07254 207.0 
257.037231 287.0 
259.05661 98.0 
261.038269 9211.0 
261.988647 174.0 
262.041382 1038.0 
265.080353 119.0 
271.915741 93.0 
272.06604 217.0 
273.075195 3542.0 
274.082214 101.0 
275.060089 107.0 
275.996826 149.0 
279.051697 3113.0 
280.050995 295.0 
281.06662 274.0 
284.089142 198.0 
284.963104 158.0 
284.997009 228.0 
285.037689 705.0 
285.075165 13629.0 
285.133148 79.0 
285.194489 357.0 
286.083282 1294.0 
287.088593 404.0 
293.079498 144.0 
295.09137 177.0 
296.142029 183.0 
296.699615 93.0 
297.076813 8995.0 
297.186066 331.0 
297.250458 179.0 
297.33194 93.0 
297.449371 232.0 
298.078217 1050.0 
298.129303 223.0 
300.071716 283.0 
301.082794 109.0 
301.21347 158.0 
305.068573 343.0 
309.081757 289.0 
310.091675 170.0 
311.085022 534.0 
312.057678 189.0 
312.11554 233.0 
313.070404 96.0 
313.310883 157.0 
314.632996 146.0 
315.086761 20738.0 
316.091949 2325.0 
323.066986 359.0 
326.07605 178.0 
326.115784 281.0 
327.076965 230.0 
328.092682 164.0 
328.765717 129.0 
329.036499 199.0 
329.066315 159.0 
335.097778 88.0 
336.094574 145.0 
337.106293 126.0 
337.816132 115.0 
338.989136 105.0 
339.018768 253.0 
339.086792 21492.0 
339.143433 176.0 
340.035919 211.0 
340.09082 2812.0 
340.45752 108.0 
340.707886 226.0 
341.077057 306.0 
345.342102 253.0 
351.089691 4775.0 
352.091797 1083.0 
353.087616 145.0 
355.085449 143.0 
358.377228 136.0 
363.030609 247.0 
363.088684 3350.0 
364.092194 143.0 
365.090027 249.0 
369.098572 2388.0 
370.1073 519.0 
372.313477 181.0 
376.089874 143.0 
381.098145 8314.0 
382.048645 237.0 
382.099823 1460.0 
383.117523 535.0 
394.15213 284.0 
395.123962 151.0 
396.116333 162.0 
398.961151 372.0 
399.107941 14604.0 
400.114532 1495.0 
401.13739 214.0 
402.632385 148.0 
402.724792 121.0 
407.100281 418.0 
411.103912 208.0 
414.525787 125.0 
416.513916 226.0 
416.907166 135.0 
417.011841 183.0 
417.11911 13637.0 
418.123962 1161.0 
418.280884 141.0 
423.515564 107.0 
425.107971 392.0 
426.110138 218.0 
431.10376 147.0 
433.112976 207.0 
434.98175 87.0 
435.13147 2961.0 
436.099335 328.0 
436.134979 485.0 
441.113525 131.0 
443.123138 496.0 
444.137573 217.0 
447.11026 304.0 
459.134766 607.0 
460.133698 126.0 
461.146851 688.0 
462.139191 126.0 
465.13382 140.0 
481.162659 114.0 
491.137634 316.0 
509.140686 272.0 
527.158691 512.0 
528.160889 147.0 
581.190186 107.0 
581.273682 142.0 
582.194519 195.0 
1300.609009 92.0 
1480.880127 166.0 
1505.812012 186.0 
1980.943848 306.0 
END IONS

BEGIN IONS
TITLE=Scan Number: 330
PEPMASS=601.11902
CHARGE=1+
MSLEVEL=2
FILENAME=C10_GC10_01_2622.mzXML
INSTRUMENT=ion trap
SCANS=330
SMILES=C[C@@H]1O[C@@H](OC2=C(OC3=C(C(O)=CC(O)=C3)C2=O)C4=CC(O)=C(O)C=C4)[C@H](OC(=O)C5=CC(O)=C(O)C(O)=C5)[C@H](O)[C@H]1O
INCHIKEY=KTTNFIOZYNBKEY-YIOJSCHVSA-N
74.971764 232.0 
75.383835 328.0 
78.985886 290.0 
79.015877 639.0 
80.022873 498.0 
81.29023 228.0 
82.082245 279.0 
83.049095 3611.0 
84.55191 260.0 
85.028473 317.0 
88.296684 126.0 
88.448425 274.0 
88.840508 262.0 
89.658943 206.0 
95.516548 238.0 
97.02874 603.0 
98.004372 470.0 
98.04155 205.0 
98.709091 187.0 
101.055023 213.0 
101.457657 197.0 
102.132202 329.0 
102.363922 166.0 
103.504868 245.0 
103.825493 193.0 
107.0121 896.0 
107.054413 252.0 
107.98143 376.0 
108.764793 98.0 
110.035149 185.0 
111.010193 263.0 
111.044342 7879.0 
112.04406 459.0 
112.830833 245.0 
113.299347 250.0 
114.353508 160.0 
114.952026 263.0 
115.057205 177.0 
116.056923 258.0 
117.068756 359.0 
119.617081 330.0 
120.960846 320.0 
122.286209 146.0 
123.009186 178.0 
123.992462 179.0 
125.022194 2119.0 
126.020187 179.0 
126.038002 348.0 
127.039505 1233.0 
129.054901 3243.0 
129.722672 342.0 
130.053818 158.0 
131.044174 153.0 
131.81163 106.0 
133.024506 352.0 
136.743805 218.0 
137.036469 308.0 
138.131317 322.0 
138.765076 190.0 
139.039398 200.0 
140.411667 172.0 
143.033615 9374.0 
143.628357 269.0 
143.934082 274.0 
144.033691 307.0 
145.036804 177.0 
145.06076 742.0 
147.047867 609.0 
148.047745 224.0 
149.062225 107.0 
149.382599 147.0 
149.714615 296.0 
150.024536 189.0 
150.554337 123.0 
151.037292 168.0 
151.077972 241.0 
151.41774 123.0 
151.629364 115.0 
152.034454 748.0 
152.282898 170.0 
152.427307 177.0 
152.528519 205.0 
152.575806 204.0 
152.658081 248.0 
152.720139 94.0 
152.755463 577.0 
152.785156 248.0 
152.853378 138.0 
152.921188 249.0 
153.018555 517303.0 
153.148911 495.0 
153.212662 88.0 
153.42897 316.0 
153.513016 125.0 
153.564163 100.0 
153.689789 203.0 
153.95285 76.0 
153.98027 207.0 
154.022308 39429.0 
154.082825 129.0 
154.238815 103.0 
154.283279 78.0 
154.384674 69.0 
154.628952 141.0 
154.683563 132.0 
154.748459 114.0 
154.908203 78.0 
155.02388 3006.0 
155.057693 472.0 
155.089813 80.0 
155.152451 584.0 
155.223175 243.0 
155.258316 150.0 
155.3302 247.0 
155.624237 217.0 
155.72345 104.0 
155.94986 164.0 
156.192001 127.0 
159.042053 364.0 
159.243423 127.0 
159.435394 247.0 
161.024567 249.0 
161.058899 741.0 
163.035843 1177.0 
164.370621 83.0 
164.509872 100.0 
165.463959 118.0 
166.057693 173.0 
166.226334 91.0 
166.686905 113.0 
166.908936 91.0 
171.030823 1262.0 
173.056931 791.0 
174.063858 173.0 
175.039703 384.0 
176.044189 189.0 
177.015259 231.0 
178.085144 114.0 
178.861069 293.0 
178.997528 232.0 
179.034546 3970.0 
179.073441 293.0 
181.013824 4832.0 
182.011414 353.0 
182.856522 243.0 
188.04071 318.0 
189.0578 1143.0 
191.039459 292.0 
191.068451 825.0 
193.054489 668.0 
194.019882 116.0 
195.03009 1600.0 
197.007843 1730.0 
197.896332 85.0 
199.033707 119.0 
201.054596 2337.0 
201.120178 99.0 
201.979111 195.0 
202.059402 433.0 
202.389069 231.0 
203.035721 430.0 
204.040497 119.0 
207.02948 17545.0 
208.035126 1222.0 
209.002167 309.0 
209.045609 2260.0 
217.050064 1497.0 
218.056992 197.0 
219.064758 8375.0 
220.06665 762.0 
221.003098 241.0 
221.043884 2371.0 
221.595917 137.0 
222.048843 636.0 
222.100403 79.0 
223.023544 5705.0 
223.377762 211.0 
224.021927 424.0 
225.037125 167.0 
227.032166 156.0 
229.048325 242.0 
235.062088 3477.0 
236.058975 357.0 
237.041565 2149.0 
238.042526 257.0 
244.258057 230.0 
245.046722 2385.0 
245.532059 134.0 
246.049606 291.0 
247.053787 205.0 
247.809128 118.0 
250.838455 179.0 
251.053772 414.0 
257.042999 716.0 
262.069031 154.0 
263.054749 7613.0 
264.061798 450.0 
264.300049 185.0 
273.022217 229.0 
275.050659 141.0 
279.834839 131.0 
280.084717 343.0 
280.152618 94.0 
280.328766 239.0 
280.38974 198.0 
280.663391 184.0 
280.941864 470.0 
281.066498 77664.0 
281.142578 341.0 
281.183868 241.0 
281.310272 84.0 
281.369629 108.0 
282.070892 5442.0 
282.305817 150.0 
283.498962 84.0 
284.061737 144.0 
284.162445 175.0 
284.187042 216.0 
284.296051 141.0 
285.042664 254.0 
295.473267 83.0 
296.095245 86.0 
298.77597 262.0 
299.077728 25939.0 
299.853088 89.0 
299.989655 99.0 
300.081543 2963.0 
300.614868 92.0 
301.064331 152.0 
301.109833 300.0 
302.907196 288.0 
303.050232 22593.0 
304.054443 2516.0 
305.065399 127.0 
306.210541 128.0 
315.05014 536.0 
315.106049 262.0 
316.052063 379.0 
324.552979 105.0 
325.073364 138.0 
327.052917 622.0 
328.061707 125.0 
339.043457 91.0 
342.148895 79.0 
345.059509 1777.0 
345.302307 117.0 
346.051819 153.0 
346.17868 108.0 
347.207581 210.0 
351.039459 129.0 
355.010193 170.0 
356.050598 208.0 
369.056335 254.0 
370.061218 403.0 
395.077118 618.0 
413.08371 512.0 
431.101532 414.0 
471.483826 156.0 
498.071533 142.0 
504.167938 113.0 
508.018066 132.0 
600.265076 86.0 
602.321289 119.0 
1229.348511 96.0 
1333.943848 82.0 
1568.096802 297.0 
1626.883789 171.0 
1774.792847 206.0 
1903.368652 189.0 
1906.291382 185.0 
1932.268188 196.0 
END IONS

BEGIN IONS
TITLE=Scan Number: 331
PEPMASS=310.16501
CHARGE=1+
MSLEVEL=2
FILENAME=E10_GE10_01_2635.mzXML
INSTRUMENT=ion trap
SCANS=331
SMILES=COC1=C(OC(=O)C(C)C)C=CC(=C1)C(OC(C)=O)C=C
INCHIKEY=AZEASYGWRLHADI-UHFFFAOYSA-N
76.616264 64.0 
77.037392 914.0 
77.397331 229.0 
77.567131 283.0 
77.766167 142.0 
79.017708 95.0 
84.128792 232.0 
86.937775 262.0 
91.053535 981.0 
93.054764 75.0 
95.049789 1322.0 
96.050598 179.0 
96.514473 160.0 
96.802681 109.0 
102.042854 486.0 
102.841125 186.0 
102.940536 129.0 
102.991188 255.0 
103.053871 138446.0 
103.166771 109.0 
103.191475 233.0 
103.21907 92.0 
103.235641 174.0 
103.331902 74.0 
103.371086 67.0 
103.679871 62.0 
103.724983 213.0 
103.77932 230.0 
103.920975 173.0 
104.027817 476.0 
104.058075 13798.0 
104.703957 164.0 
104.853165 111.0 
104.905479 65.0 
105.010475 149.0 
105.044785 3619.0 
105.118065 63.0 
106.045639 144.0 
107.048866 784.0 
108.055038 170.0 
109.165031 81.0 
109.468803 78.0 
109.484352 98.0 
110.089539 60.0 
113.92263 64.0 
115.055122 191.0 
115.397369 382.0 
116.155235 314.0 
117.069168 150.0 
118.04258 188.0 
119.048683 142.0 
120.058083 530.0 
121.068451 272.0 
123.453171 290.0 
125.064568 271.0 
125.44442 127.0 
128.227768 152.0 
129.073669 199.0 
129.906143 144.0 
130.345764 358.0 
130.781967 87.0 
130.856537 245.0 
130.917267 273.0 
130.937927 92.0 
131.048996 223989.0 
131.102249 126.0 
131.124969 309.0 
131.149414 101.0 
131.190598 146.0 
131.224396 82.0 
131.249863 117.0 
131.293579 212.0 
131.419632 324.0 
131.662155 68.0 
131.740768 95.0 
131.944016 222.0 
131.995544 160.0 
132.012985 125.0 
132.052216 21468.0 
132.113388 191.0 
132.161484 77.0 
132.450821 132.0 
132.853424 53.0 
132.876663 60.0 
132.917725 381.0 
132.971466 50.0 
133.031387 101.0 
133.070175 117.0 
133.089661 156.0 
133.153 95.0 
135.084854 106.0 
137.055222 60.0 
138.893265 82.0 
139.086166 49.0 
143.063263 79.0 
145.097122 66.0 
147.996323 182.0 
148.051056 430.0 
149.055389 126.0 
154.951218 143.0 
163.075623 71827.0 
163.307968 82.0 
164.028336 313.0 
164.049393 213.0 
164.078918 4828.0 
164.64566 58.0 
165.076508 269.0 
165.261581 139.0 
165.32193 155.0 
165.408188 265.0 
178.789291 54.0 
205.159286 143.0 
206.105484 172.0 
215.1474 295.0 
233.119827 1464.0 
268.18924 165.0 
310.167389 119.0 
1075.671143 240.0 
1367.863403 209.0 
1375.519897 200.0 
1385.404541 322.0 
1409.962402 91.0 
1573.810913 262.0 
1574.1604 296.0 
1585.218628 252.0 
1763.613037 262.0 
1787.86853 320.0 
1806.099121 339.0 
1810.430908 179.0 
1849.917114 229.0 
1864.099609 107.0 
1866.811768 212.0 
1907.476807 168.0 
1955.106079 413.0 
1998.790527 142.0 
END IONS

BEGIN IONS
TITLE=Scan Number: 332
PEPMASS=361.09201
CHARGE=1+
MSLEVEL=2
FILENAME=E10_GE10_01_2635.mzXML
INSTRUMENT=ion trap
SCANS=332
SMILES=COC1=CC=C(C=C1O)C2=C(OC)C(=O)C3=C(O2)C=C(O)C(OC)=C3O
INCHIKEY=BZXULYMZYPRZOG-UHFFFAOYSA-N
76.892479 204.0 
76.996712 164.0 
77.050545 281.0 
77.340988 280.0 
77.467377 143.0 
77.507881 178.0 
78.105774 155.0 
79.550644 113.0 
79.644119 121.0 
79.988831 62.0 
80.055733 126.0 
80.402359 186.0 
81.030495 244.0 
81.065575 195.0 
81.336174 112.0 
81.434036 149.0 
81.502563 284.0 
82.007309 203.0 
82.451675 269.0 
83.011719 365.0 
84.239746 238.0 
84.929108 332.0 
89.035927 190.0 
90.531586 275.0 
91.055244 433.0 
92.030968 384.0 
92.057388 154.0 
93.026283 422.0 
93.071411 324.0 
94.006172 152.0 
94.040901 208.0 
94.986824 104.0 
95.013252 718.0 
95.047813 369.0 
98.033463 152.0 
99.007629 1589.0 
100.008316 234.0 
100.441956 353.0 
101.210716 105.0 
101.454041 166.0 
101.796883 312.0 
102.049133 242.0 
103.054932 417.0 
104.061531 150.0 
104.680511 390.0 
105.038338 967.0 
105.173462 328.0 
106.005493 199.0 
106.040825 269.0 
106.789185 169.0 
107.043442 397.0 
107.186188 285.0 
107.345619 164.0 
107.704865 268.0 
108.019798 1609.0 
108.660957 341.0 
109.027351 1141.0 
109.063591 171.0 
109.139427 309.0 
109.382446 438.0 
109.467178 119.0 
109.800362 306.0 
111.009598 268.0 
111.20977 122.0 
111.340508 455.0 
112.013771 1114.0 
112.534798 164.0 
113.025627 207.0 
115.053505 501.0 
115.447411 213.0 
115.890274 291.0 
116.063461 179.0 
116.200058 218.0 
116.705589 140.0 
117.028412 320.0 
117.067459 377.0 
117.412918 198.0 
117.725731 183.0 
119.013763 318.0 
119.048088 1182.0 
119.087646 169.0 
119.74118 311.0 
119.842369 263.0 
120.01709 1064.0 
120.079063 97.0 
121.027512 2500.0 
121.064758 336.0 
121.991875 156.0 
122.030617 689.0 
122.226295 63.0 
122.263603 120.0 
123.007133 715.0 
123.03244 670.0 
124.016335 565.0 
124.050819 1678.0 
125.021355 463.0 
125.057564 149.0 
126.051544 212.0 
127.001808 1201.0 
129.0336 128.0 
129.069839 569.0 
130.037796 593.0 
130.075424 517.0 
130.211929 155.0 
130.328644 264.0 
130.905701 144.0 
131.047684 2908.0 
131.087448 152.0 
132.051804 447.0 
132.125412 152.0 
133.028214 862.0 
133.062881 399.0 
134.033234 1009.0 
134.069565 172.0 
135.006851 144.0 
135.028198 145.0 
135.045944 1531.0 
135.077042 162.0 
136.018692 159.0 
136.052109 619.0 
136.336624 93.0 
136.473679 441.0 
136.780365 133.0 
136.804993 276.0 
137.0242 3192.0 
137.059631 7081.0 
137.196991 118.0 
137.262146 186.0 
137.348343 81.0 
138.030075 485.0 
138.06543 221.0 
138.229736 81.0 
138.835617 133.0 
139.001633 1151.0 
139.036469 287.0 
139.05571 328.0 
139.090271 109.0 
139.181015 131.0 
139.294724 70.0 
140.009842 2618.0 
140.161072 214.0 
141.019501 1636.0 
141.069809 200.0 
141.391617 121.0 
142.023987 494.0 
142.104813 145.0 
142.626221 172.0 
143.047363 572.0 
144.047302 179.0 
144.435394 292.0 
144.742783 76.0 
145.029022 1329.0 
145.064484 1254.0 
145.120682 57.0 
145.201385 260.0 
145.970734 110.0 
146.036835 1290.0 
146.067535 721.0 
146.291107 249.0 
147.001709 672.0 
147.042877 3269.0 
147.080093 159.0 
147.118835 137.0 
147.225616 93.0 
148.018204 80.0 
148.0504 1141.0 
148.989975 124.0 
149.024338 1147.0 
149.059235 3496.0 
149.16098 248.0 
150.031494 490.0 
150.062302 1411.0 
150.409515 174.0 
151.039505 11089.0 
151.191849 111.0 
151.922379 123.0 
152.00824 124.0 
152.041382 1762.0 
152.809692 195.0 
152.992722 242.0 
153.016327 1186.0 
153.072342 241.0 
153.23024 73.0 
153.256699 112.0 
154.019394 181.0 
154.043365 154.0 
154.082703 210.0 
154.106064 221.0 
154.362503 181.0 
154.403381 162.0 
155.054581 1254.0 
155.082855 300.0 
156.05867 1028.0 
156.28685 248.0 
157.030197 863.0 
157.062714 1204.0 
158.036316 127.0 
158.99855 223.0 
159.045074 4688.0 
159.082703 393.0 
159.166321 135.0 
159.226135 144.0 
159.42514 235.0 
160.051636 1264.0 
160.089478 174.0 
160.940643 258.0 
161.022034 1541.0 
161.060913 3163.0 
161.180893 140.0 
161.388962 181.0 
162.030258 4508.0 
162.065735 1356.0 
163.039215 3617.0 
163.075439 871.0 
164.046494 1496.0 
165.01564 889.0 
165.05275 1312.0 
166.159546 293.0 
166.609314 94.0 
166.933228 194.0 
166.99852 960.0 
167.030518 214.0 
167.048874 214.0 
167.509903 220.0 
168.00563 6434.0 
168.908615 180.0 
169.012848 5267.0 
169.752731 114.0 
169.971542 117.0 
170.035095 854.0 
170.07489 122.0 
170.960403 161.0 
171.047363 2248.0 
172.023651 118.0 
172.050781 991.0 
172.086365 357.0 
173.023651 3166.0 
173.060257 4203.0 
174.03157 685.0 
174.063538 308.0 
174.491394 166.0 
174.946136 165.0 
175.002045 101.0 
175.039413 1785.0 
175.073456 963.0 
175.419235 134.0 
175.697922 142.0 
176.04599 2312.0 
176.276123 175.0 
177.016052 1564.0 
177.054504 9000.0 
177.235855 187.0 
178.02124 420.0 
178.06221 3186.0 
179.035141 168.0 
179.066711 183.0 
179.160385 275.0 
180.044617 571.0 
180.79776 761.0 
181.023865 366.0 
181.056152 154.0 
181.990585 66.0 
183.038574 3016.0 
183.817932 184.0 
184.050568 1912.0 
184.637527 228.0 
184.969666 358.0 
185.007919 2183.0 
185.057449 1526.0 
186.01683 3706.0 
186.06842 185.0 
187.037735 5982.0 
187.076614 779.0 
187.287033 214.0 
187.707687 285.0 
188.044678 1111.0 
188.083633 346.0 
188.352921 216.0 
189.018097 897.0 
189.053574 3729.0 
189.455154 135.0 
189.989014 193.0 
190.024261 936.0 
190.064163 1266.0 
191.034378 1526.0 
191.069122 3313.0 
191.496933 227.0 
192.03653 264.0 
192.082886 196.0 
192.472977 211.0 
192.590988 64.0 
193.008347 635.0 
193.047638 427.0 
193.400238 124.0 
193.431854 345.0 
193.513641 88.0 
194.019363 371.0 
194.475449 272.0 
195.028259 805.0 
195.103607 281.0 
195.149323 138.0 
197.059021 348.0 
198.032379 618.0 
198.064606 367.0 
198.10553 77.0 
198.770996 271.0 
198.996307 380.0 
199.039001 2814.0 
199.073898 1545.0 
199.724594 330.0 
200.04335 1841.0 
201.020508 636.0 
201.055298 12292.0 
202.032394 901.0 
202.059387 1790.0 
202.997589 224.0 
203.033691 4287.0 
203.352921 241.0 
203.485291 306.0 
203.591965 179.0 
203.867645 112.0 
204.041122 5262.0 
204.478622 197.0 
205.050247 3606.0 
205.090073 144.0 
205.225052 127.0 
206.02005 601.0 
206.049973 486.0 
206.99707 92.0 
207.027817 791.0 
207.062653 590.0 
208.024048 153.0 
209.045898 606.0 
209.518936 146.0 
210.010757 123.0 
210.04805 318.0 
210.312805 294.0 
211.039276 2252.0 
211.070831 505.0 
211.099335 146.0 
211.527557 123.0 
212.04689 1817.0 
213.053024 2301.0 
213.473602 226.0 
214.024094 254.0 
214.059448 532.0 
214.150101 274.0 
214.632721 249.0 
214.96521 147.0 
215.001648 197.0 
215.035553 5900.0 
215.069885 2914.0 
215.859604 58.0 
216.042419 3017.0 
216.079575 973.0 
216.226349 132.0 
216.999298 157.0 
217.049805 16287.0 
217.280685 337.0 
217.36882 126.0 
217.665039 238.0 
218.022034 1031.0 
218.053543 2770.0 
218.261841 109.0 
218.447937 223.0 
218.600708 232.0 
218.784668 101.0 
218.819717 154.0 
219.01358 101.0 
219.064438 2871.0 
220.037766 179.0 
220.064682 181.0 
221.040314 556.0 
221.097351 138.0 
222.445969 306.0 
222.521072 185.0 
223.032822 196.0 
223.129044 177.0 
223.184509 215.0 
223.568451 160.0 
223.672195 229.0 
224.226257 286.0 
225.019302 305.0 
225.054947 710.0 
226.022766 347.0 
226.062103 255.0 
226.323456 68.0 
227.035858 1235.0 
227.07225 2485.0 
227.230911 258.0 
228.0401 1641.0 
228.273972 155.0 
228.319931 410.0 
228.836472 137.0 
229.050278 18592.0 
229.286697 121.0 
229.343872 180.0 
229.857513 113.0 
230.052994 3527.0 
230.490417 98.0 
231.02803 958.0 
231.061584 1143.0 
231.847839 165.0 
231.998169 496.0 
232.036591 11430.0 
232.155365 163.0 
232.255905 208.0 
232.761642 134.0 
233.043579 3967.0 
233.080246 566.0 
233.512863 125.0 
234.016296 194.0 
234.05571 109.0 
235.058151 577.0 
236.044525 206.0 
238.68927 178.0 
239.030121 945.0 
239.999054 163.0 
240.04306 3202.0 
240.533936 164.0 
241.048172 2363.0 
241.260757 149.0 
242.049408 333.0 
242.668015 242.0 
242.742065 178.0 
243.029999 12800.0 
243.064407 4520.0 
243.989304 270.0 
244.034332 3513.0 
244.070389 1739.0 
244.160065 86.0 
245.012253 831.0 
245.043335 5997.0 
245.084793 264.0 
245.647903 149.0 
246.009766 618.0 
246.051529 1516.0 
246.331436 217.0 
246.680618 280.0 
246.965668 114.0 
246.99794 393.0 
247.060684 7321.0 
247.662598 144.0 
248.062225 1860.0 
248.140945 69.0 
248.355042 114.0 
248.503311 148.0 
248.706161 189.0 
249.068954 155.0 
251.054398 165.0 
252.041748 503.0 
252.512756 292.0 
252.866302 180.0 
253.048508 756.0 
254.025345 168.0 
254.058731 422.0 
254.4814 54.0 
254.991272 178.0 
255.027435 925.0 
255.067261 1780.0 
255.462112 245.0 
255.570251 218.0 
255.778824 204.0 
255.918518 132.0 
255.987106 68.0 
256.03775 1710.0 
256.072906 445.0 
256.23999 99.0 
256.972443 628.0 
257.04422 30981.0 
257.106812 162.0 
257.260437 63.0 
257.306946 268.0 
257.356476 91.0 
257.463806 171.0 
257.60614 144.0 
257.725952 103.0 
257.821899 112.0 
258.048187 5691.0 
258.215363 193.0 
258.501068 106.0 
258.792297 125.0 
259.024597 1497.0 
259.057281 1982.0 
259.115784 270.0 
259.89624 272.0 
259.930328 87.0 
259.957642 288.0 
260.031616 33951.0 
260.075348 434.0 
260.389557 53.0 
260.771729 74.0 
260.859558 142.0 
261.037781 3912.0 
261.077698 1033.0 
261.186188 168.0 
261.682678 76.0 
262.036499 1026.0 
262.906281 173.0 
262.99939 141.0 
263.241547 110.0 
263.867645 76.0 
264.031097 246.0 
264.572113 136.0 
264.940338 171.0 
265.055054 332.0 
267.027344 1035.0 
267.713593 269.0 
267.838867 192.0 
268.03772 5501.0 
268.459045 131.0 
268.492767 145.0 
268.885956 146.0 
269.044922 54109.0 
269.184845 98.0 
269.377869 94.0 
269.972076 109.0 
270.048584 7491.0 
270.656128 143.0 
271.023651 3862.0 
271.058319 5355.0 
271.561279 180.0 
271.640076 158.0 
272.032593 2091.0 
272.064758 4765.0 
272.198212 120.0 
273.039764 5098.0 
274.045319 4305.0 
274.54361 96.0 
274.697723 237.0 
274.927094 187.0 
275.055786 15139.0 
275.27774 368.0 
276.024719 193.0 
276.058014 950.0 
276.466522 251.0 
276.583923 349.0 
277.059418 126.0 
277.476532 220.0 
277.579956 73.0 
278.001587 274.0 
278.331604 163.0 
279.046051 86.0 
279.183441 179.0 
280.027863 214.0 
280.834167 208.0 
280.988373 172.0 
281.051758 304.0 
282.054291 895.0 
282.215027 84.0 
282.314728 102.0 
282.952209 242.0 
283.060699 15907.0 
283.973785 188.0 
284.032257 4140.0 
284.062531 3651.0 
284.9422 247.0 
285.039062 38679.0 
285.264191 89.0 
285.345032 65.0 
286.042023 5963.0 
286.161804 134.0 
286.798309 100.0 
287.010742 434.0 
287.050659 1548.0 
287.76886 59.0 
288.026581 42462.0 
288.802948 122.0 
289.031555 8767.0 
289.073669 1499.0 
289.979706 53.0 
290.02713 436.0 
290.078491 607.0 
290.228302 93.0 
291.89859 93.0 
294.261078 404.0 
295.022797 563.0 
295.490387 190.0 
295.700806 85.0 
295.738068 158.0 
296.031708 2405.0 
296.396515 131.0 
296.436401 133.0 
296.950958 107.0 
296.9935 781.0 
297.039673 27212.0 
297.14151 59.0 
298.043762 4726.0 
298.091309 303.0 
298.464813 70.0 
298.494263 177.0 
298.59906 164.0 
299.055573 10871.0 
299.52951 207.0 
299.578094 52.0 
299.67804 133.0 
299.995789 212.0 
300.06366 19700.0 
300.178925 238.0 
300.441467 82.0 
300.496674 63.0 
300.685974 53.0 
300.816956 178.0 
300.973907 226.0 
301.034454 4184.0 
301.068024 3747.0 
301.191956 57.0 
301.715118 340.0 
301.793304 158.0 
301.994141 262.0 
302.042023 6690.0 
302.078522 431.0 
302.162567 93.0 
302.24057 271.0 
302.380829 76.0 
302.40921 126.0 
302.564789 91.0 
302.59317 251.0 
302.635254 263.0 
302.663177 255.0 
302.828491 279.0 
302.932281 140.0 
302.968231 883.0 
303.050079 210539.0 
303.116486 396.0 
303.156219 168.0 
303.185547 95.0 
303.260895 328.0 
303.337189 247.0 
303.36319 238.0 
303.415222 64.0 
303.504211 285.0 
303.556976 103.0 
303.687408 102.0 
303.739746 162.0 
303.880493 116.0 
303.923309 73.0 
303.95874 223.0 
304.053497 31047.0 
304.150055 115.0 
304.214355 121.0 
304.49411 140.0 
304.620056 153.0 
304.701691 108.0 
304.835541 78.0 
304.929321 140.0 
305.058624 522.0 
305.101959 104.0 
305.152313 101.0 
305.422516 108.0 
305.479736 71.0 
305.883362 203.0 
305.956055 122.0 
306.019043 171.0 
306.07196 389.0 
306.271881 152.0 
308.545715 121.0 
309.046051 177.0 
310.044708 395.0 
311.054901 11868.0 
311.430573 107.0 
312.025055 3293.0 
312.057281 1854.0 
312.948822 80.0 
312.979797 353.0 
313.03476 12249.0 
313.408905 86.0 
313.548584 153.0 
313.979706 145.0 
314.04306 3235.0 
314.104095 85.0 
314.210938 75.0 
314.868866 108.0 
315.048706 5304.0 
315.265076 175.0 
315.680115 301.0 
315.788025 147.0 
315.923553 349.0 
315.960663 351.0 
316.022064 14853.0 
316.056244 7382.0 
316.189026 181.0 
316.462189 152.0 
317.026215 3250.0 
317.065338 8240.0 
318.074707 1528.0 
318.172546 103.0 
318.627533 80.0 
318.957581 247.0 
319.080902 143.0 
319.121918 121.0 
319.568176 142.0 
320.513733 143.0 
321.267944 67.0 
321.386383 329.0 
321.604919 215.0 
323.073029 91.0 
323.306763 106.0 
324.852844 132.0 
326.036407 185.0 
326.463531 79.0 
326.972198 184.0 
327.008209 204.0 
327.050446 8868.0 
327.179718 129.0 
327.319702 129.0 
327.950745 291.0 
327.985687 354.0 
328.058228 70541.0 
328.221558 145.0 
328.87619 234.0 
329.063995 20527.0 
329.779572 78.0 
330.001007 730.0 
330.03891 8456.0 
330.211182 70.0 
330.27124 240.0 
330.516693 228.0 
330.691528 113.0 
330.963501 267.0 
331.044556 55860.0 
331.125397 195.0 
331.421631 221.0 
331.486786 86.0 
332.049774 7786.0 
332.116943 136.0 
332.673401 83.0 
333.882172 106.0 
334.019684 76.0 
334.067078 253.0 
334.377747 203.0 
334.747864 68.0 
335.450958 176.0 
340.048798 122.0 
340.762909 101.0 
342.083313 185.0 
342.433319 183.0 
342.994995 161.0 
343.046234 772.0 
343.086151 720.0 
343.497803 107.0 
343.543762 155.0 
343.745941 77.0 
343.996063 168.0 
344.053925 207.0 
344.16275 83.0 
344.229706 75.0 
344.308044 134.0 
344.507904 257.0 
344.714508 68.0 
344.867401 80.0 
344.928619 250.0 
344.969696 719.0 
345.06073 111823.0 
345.193848 247.0 
345.234833 233.0 
345.412872 216.0 
345.520416 199.0 
345.568726 287.0 
345.659424 71.0 
345.88269 201.0 
345.966492 197.0 
346.067902 115118.0 
346.278015 79.0 
346.396088 95.0 
346.543823 103.0 
346.896698 244.0 
346.938751 248.0 
347.070892 11317.0 
347.4039 199.0 
347.483521 236.0 
347.682556 61.0 
347.754669 72.0 
348.082825 225.0 
348.155212 158.0 
348.452118 129.0 
348.820679 175.0 
349.418274 87.0 
349.561584 92.0 
349.627106 83.0 
351.433441 385.0 
352.450012 121.0 
353.920105 96.0 
355.358582 225.0 
355.989899 121.0 
356.424316 359.0 
358.007599 114.0 
358.325165 54.0 
358.37384 115.0 
358.684814 63.0 
358.988831 94.0 
359.275787 450.0 
359.648315 119.0 
359.674683 140.0 
359.951233 413.0 
360.021179 170.0 
360.129669 232.0 
360.192139 323.0 
360.250427 165.0 
360.421387 179.0 
360.462524 144.0 
360.555023 410.0 
360.637939 295.0 
360.695618 209.0 
360.798828 95.0 
360.84256 205.0 
360.880157 136.0 
360.91394 416.0 
361.092194 408636.0 
361.234558 359.0 
361.275055 231.0 
361.352905 382.0 
361.387238 294.0 
361.432434 78.0 
361.511688 415.0 
361.582458 229.0 
361.789978 164.0 
361.828278 162.0 
361.875854 95.0 
361.96756 313.0 
362.02179 738.0 
362.095459 53978.0 
362.187317 98.0 
362.252136 137.0 
362.756866 62.0 
363.095612 522.0 
363.251587 186.0 
363.753723 107.0 
363.853546 116.0 
363.911072 76.0 
364.129486 281.0 
364.198608 138.0 
364.233215 99.0 
364.285431 328.0 
364.350891 59.0 
364.414795 346.0 
364.461517 91.0 
364.538086 56.0 
364.566254 122.0 
364.622253 328.0 
364.694244 164.0 
365.222168 55.0 
365.527283 134.0 
365.692352 182.0 
366.254669 82.0 
368.689362 62.0 
371.785553 98.0 
374.010742 59.0 
374.722382 102.0 
374.804016 102.0 
374.934265 71.0 
375.926788 128.0 
376.040527 97.0 
376.69696 107.0 
444.248138 106.0 
479.631927 80.0 
683.873718 65.0 
713.965393 108.0 
753.971436 87.0 
1143.883545 140.0 
1346.739624 95.0 
1633.822388 150.0 
1903.964355 75.0 
END IONS

BEGIN IONS
TITLE=Scan Number: 333
PEPMASS=389.19601
CHARGE=1+
MSLEVEL=2
FILENAME=E10_GE10_01_2635.mzXML
INSTRUMENT=ion trap
SCANS=333
SMILES=COC1=CC(CC(C)OC2=C(OC)C=C(\C=C\CO)C=C2)=CC(OC)=C1OC
INCHIKEY=CZVGIALASULOAU-VOTSOKGWSA-N
79.020653 101.0 
79.057281 152.0 
81.067886 148.0 
91.051651 461.0 
93.071259 217.0 
94.066666 187.0 
95.08609 438.0 
103.056007 310.0 
104.063652 406.0 
105.071251 565.0 
106.03051 268.0 
106.468956 136.0 
107.032051 417.0 
107.04837 1020.0 
108.053535 151.0 
109.067116 161.0 
110.035912 763.0 
115.05265 479.0 
116.063042 767.0 
117.063248 165.0 
119.053215 889.0 
120.060219 195.0 
121.064751 1887.0 
122.067741 367.0 
123.043839 336.0 
123.077347 469.0 
124.080345 181.0 
125.06237 409.0 
125.094704 173.0 
129.319473 283.0 
130.978912 190.0 
131.050735 680.0 
131.087463 185.0 
133.02803 598.0 
133.06105 878.0 
134.073563 360.0 
135.078232 1502.0 
135.121826 266.0 
136.051346 1001.0 
136.086975 217.0 
137.059357 1064.0 
137.796051 140.0 
138.046829 112.0 
138.067032 483.0 
138.555923 131.0 
144.057861 443.0 
145.064774 786.0 
145.210556 317.0 
146.072052 937.0 
147.044083 3476.0 
147.079834 1756.0 
148.050369 1466.0 
148.086533 561.0 
149.059631 1442.0 
149.098145 992.0 
150.063522 133.0 
151.03688 535.0 
151.074432 5390.0 
152.049683 258.0 
152.080673 375.0 
152.487213 142.0 
152.682968 83.0 
153.032028 381.0 
153.054672 3486.0 
153.083588 454.0 
153.506195 164.0 
154.060852 1489.0 
154.293106 167.0 
155.067322 121.0 
161.062836 367.0 
162.068207 2312.0 
163.075226 6834.0 
164.014252 170.0 
164.051453 372.0 
164.080475 1512.0 
165.056091 1535.0 
165.092865 865.0 
165.493851 91.0 
166.061829 2301.0 
166.09169 121.0 
166.84819 108.0 
167.074402 224.0 
168.078293 2925.0 
169.082809 295.0 
171.798553 315.0 
176.083374 473.0 
177.044724 175.0 
177.091324 2120.0 
177.124146 163.0 
177.959381 126.0 
178.099991 10926.0 
179.069626 5943.0 
179.105865 2094.0 
179.142548 188.0 
180.07254 410.0 
180.107498 164.0 
180.759796 191.0 
180.994446 176.0 
181.086166 13739.0 
181.395096 139.0 
182.089249 1273.0 
183.378677 158.0 
183.530731 215.0 
186.067291 202.0 
186.852768 205.0 
189.091232 182.0 
189.978821 100.0 
190.689896 296.0 
190.961395 141.0 
191.063293 301.0 
191.111404 133.0 
192.92746 208.0 
193.089127 824.0 
194.053833 231.0 
194.093918 11410.0 
195.093216 841.0 
197.06926 229.0 
201.099319 186.0 
201.345413 109.0 
206.500259 124.0 
207.121124 211.0 
207.677231 112.0 
208.079147 220.0 
208.391373 187.0 
209.117737 43480.0 
209.155624 262.0 
209.370346 131.0 
209.547089 204.0 
210.093689 261.0 
210.122055 4437.0 
214.151138 162.0 
217.080978 115.0 
218.094711 118.0 
223.101303 276.0 
224.094742 183.0 
233.126877 158.0 
249.214172 123.0 
253.082443 124.0 
253.126236 151.0 
276.209045 152.0 
277.22229 269.0 
279.151611 175.0 
293.201904 249.0 
295.222931 199.0 
305.2052 161.0 
309.107849 219.0 
310.963165 118.0 
311.084198 102.0 
313.140472 115.0 
329.136871 284.0 
333.967773 90.0 
341.133148 180.0 
357.134613 106.0 
372.183441 178.0 
373.166077 151.0 
1520.137207 285.0 
1674.405273 199.0 
END IONS

BEGIN IONS
TITLE=Scan Number: 334
PEPMASS=371.185
CHARGE=1+
MSLEVEL=2
FILENAME=E10_GE10_01_2635.mzXML
INSTRUMENT=ion trap
SCANS=334
SMILES=COC1=CC(CC(C)OC2=C(OC)C=C(\C=C\CO)C=C2)=CC(OC)=C1OC
INCHIKEY=CZVGIALASULOAU-VOTSOKGWSA-N
75.044594 520.0 
76.156067 191.0 
76.820908 69.0 
78.045723 716.0 
79.030273 242.0 
79.053421 961.0 
79.949951 410.0 
80.05764 251.0 
80.507843 324.0 
81.614632 138.0 
81.972404 302.0 
82.055641 234.0 
82.426003 59.0 
83.33445 174.0 
83.372513 175.0 
83.415596 81.0 
83.724358 152.0 
84.095406 346.0 
85.026512 352.0 
86.233864 246.0 
87.96077 223.0 
88.317001 186.0 
91.054199 6405.0 
91.154007 212.0 
91.270531 68.0 
92.05545 669.0 
93.033897 2313.0 
93.068756 1523.0 
93.933624 123.0 
94.071182 209.0 
95.050148 1597.0 
95.083717 160.0 
95.506371 124.0 
95.546127 294.0 
95.803955 417.0 
98.598854 328.0 
102.047104 210.0 
103.05407 22858.0 
103.21833 179.0 
104.05896 2317.0 
104.686653 127.0 
104.78582 173.0 
105.009445 160.0 
105.045532 3173.0 
105.069267 6984.0 
105.243858 146.0 
105.332176 260.0 
105.415985 163.0 
106.0 252.0 
106.043625 1072.0 
106.072182 839.0 
106.81118 328.0 
106.881294 151.0 
107.0485 14443.0 
107.08448 597.0 
107.366791 113.0 
107.522568 271.0 
108.054802 3700.0 
108.084114 81.0 
108.831772 132.0 
109.030441 378.0 
109.064186 2866.0 
109.096764 259.0 
109.187439 97.0 
109.21785 236.0 
109.285332 233.0 
109.365982 83.0 
110.036186 1339.0 
110.073036 621.0 
110.604485 220.0 
111.046021 1571.0 
111.066879 182.0 
111.082687 233.0 
113.024658 177.0 
114.787766 355.0 
115.028557 171.0 
115.053749 4064.0 
116.061882 1764.0 
116.122627 103.0 
116.151299 105.0 
116.882492 127.0 
116.969612 194.0 
117.069138 4069.0 
117.42765 276.0 
117.499458 190.0 
117.689049 314.0 
118.04023 498.0 
118.070305 480.0 
118.36451 50.0 
119.04895 15067.0 
119.08744 1785.0 
119.210953 167.0 
120.026375 370.0 
120.053497 2479.0 
121.029976 1641.0 
121.064438 17715.0 
121.09745 222.0 
121.679199 75.0 
122.035652 796.0 
122.065643 950.0 
122.926414 247.0 
123.04258 4516.0 
123.079292 5021.0 
123.33989 86.0 
123.708633 222.0 
123.833801 167.0 
123.986656 132.0 
124.049576 936.0 
124.086128 147.0 
124.567673 511.0 
124.683563 279.0 
125.058426 5473.0 
126.066818 503.0 
127.036301 134.0 
128.061996 508.0 
128.870819 114.0 
129.069168 825.0 
129.203812 139.0 
129.936478 115.0 
129.952347 119.0 
130.042542 743.0 
130.078476 468.0 
130.929413 93.0 
131.049179 36374.0 
131.090424 373.0 
131.187912 68.0 
131.400024 308.0 
131.58139 250.0 
131.984238 243.0 
132.032578 495.0 
132.053986 3626.0 
132.086121 275.0 
132.299255 139.0 
132.863007 208.0 
132.990097 326.0 
133.028229 10916.0 
133.064087 9562.0 
133.105316 150.0 
133.17244 95.0 
133.399979 314.0 
133.860199 141.0 
134.033005 981.0 
134.071701 7313.0 
134.227692 89.0 
134.412567 102.0 
134.494568 172.0 
134.977448 498.0 
135.04393 3378.0 
135.079834 26837.0 
135.115585 154.0 
135.159042 85.0 
135.446014 212.0 
135.501129 123.0 
135.829025 75.0 
136.004593 177.0 
136.051727 12160.0 
136.086761 3799.0 
136.367828 119.0 
136.684219 68.0 
137.016266 298.0 
137.059525 10614.0 
138.030563 682.0 
138.06694 5390.0 
138.205627 104.0 
138.330093 56.0 
139.038116 1162.0 
139.075089 1279.0 
139.191025 178.0 
139.264038 294.0 
140.071304 212.0 
141.993988 165.0 
142.270981 127.0 
143.050995 427.0 
143.085403 161.0 
143.240585 85.0 
144.055832 879.0 
144.688202 204.0 
145.068924 6081.0 
146.036407 112.0 
146.071136 6874.0 
146.476959 300.0 
146.600281 55.0 
146.811996 250.0 
146.920639 480.0 
147.044113 36700.0 
147.079422 24281.0 
147.170074 99.0 
147.444824 84.0 
147.752365 208.0 
147.910889 117.0 
148.050613 18258.0 
148.086502 5686.0 
148.946442 53.0 
149.017487 319.0 
149.059967 18815.0 
149.096313 7668.0 
149.351517 87.0 
150.011215 308.0 
150.032104 454.0 
150.064316 2140.0 
150.100372 702.0 
150.19133 241.0 
150.271469 260.0 
150.363052 239.0 
150.406342 229.0 
150.799789 134.0 
151.036972 3945.0 
151.075119 49356.0 
151.112747 208.0 
151.689148 109.0 
151.772552 64.0 
152.046234 1871.0 
152.080261 5946.0 
152.234436 68.0 
152.362579 69.0 
152.915527 114.0 
152.987686 196.0 
153.020813 338.0 
153.054626 31514.0 
153.087036 705.0 
153.208832 160.0 
153.270447 61.0 
153.456543 214.0 
153.989899 147.0 
154.062195 9410.0 
154.093079 195.0 
154.300781 118.0 
154.983124 164.0 
155.033539 246.0 
155.066193 911.0 
156.183838 325.0 
159.056824 89.0 
159.081116 594.0 
160.1521 122.0 
160.539505 240.0 
161.061111 8508.0 
161.377686 165.0 
161.630707 59.0 
161.978531 140.0 
162.023331 161.0 
162.067825 20135.0 
162.201721 64.0 
163.075256 69187.0 
163.113663 412.0 
163.217545 306.0 
163.431961 219.0 
163.462021 214.0 
163.663956 177.0 
163.781754 111.0 
163.954865 152.0 
163.978378 290.0 
164.013214 107.0 
164.045715 842.0 
164.080704 10481.0 
164.18399 119.0 
164.472992 84.0 
164.735291 157.0 
164.824585 96.0 
164.903076 90.0 
164.994537 98.0 
165.054901 20676.0 
165.089813 3534.0 
165.162491 81.0 
165.870865 98.0 
165.992416 227.0 
166.062729 32219.0 
166.098099 1348.0 
166.618591 60.0 
166.71936 86.0 
167.034012 219.0 
167.066589 3773.0 
167.107376 483.0 
167.209412 55.0 
167.39325 104.0 
168.078278 49686.0 
168.123779 115.0 
169.083511 4278.0 
169.802612 247.0 
170.077896 187.0 
170.216461 67.0 
170.409317 84.0 
170.994354 178.0 
172.079742 121.0 
172.532349 81.0 
172.652283 202.0 
172.995438 167.0 
173.353088 84.0 
173.955353 91.0 
174.492401 67.0 
174.584473 130.0 
174.960953 216.0 
175.077484 745.0 
175.105728 107.0 
175.400467 251.0 
175.687027 68.0 
176.082031 1519.0 
176.74884 154.0 
176.961121 97.0 
177.045258 310.0 
177.091492 20251.0 
177.254791 107.0 
177.382874 80.0 
177.485107 101.0 
177.674759 358.0 
177.945068 373.0 
177.981247 203.0 
178.098801 110253.0 
178.21666 175.0 
178.26503 61.0 
178.334778 66.0 
178.508636 186.0 
178.698471 150.0 
178.860275 90.0 
178.978821 143.0 
179.020172 159.0 
179.07048 60293.0 
179.103546 12183.0 
179.202332 108.0 
179.246399 95.0 
179.442688 281.0 
179.659576 70.0 
180.074661 5205.0 
180.108398 739.0 
180.223068 78.0 
180.341644 209.0 
180.565018 105.0 
180.635544 128.0 
180.717941 247.0 
180.777313 185.0 
180.930618 194.0 
181.030212 487.0 
181.085892 111991.0 
181.201187 87.0 
181.221649 255.0 
181.29335 126.0 
181.386444 264.0 
181.757309 202.0 
182.026154 378.0 
182.089417 7299.0 
182.761475 78.0 
183.092819 438.0 
183.576996 115.0 
185.947418 102.0 
186.941483 383.0 
188.751938 304.0 
190.333405 76.0 
190.605194 84.0 
191.108398 147.0 
191.170044 270.0 
191.393326 123.0 
191.543625 174.0 
191.840546 102.0 
193.08638 2080.0 
193.277466 76.0 
193.335052 79.0 
193.481659 67.0 
193.777161 91.0 
193.885712 98.0 
193.923492 152.0 
194.015213 348.0 
194.093628 99691.0 
194.162827 223.0 
194.20929 101.0 
194.348587 74.0 
194.914703 244.0 
195.060577 186.0 
195.096481 7709.0 
195.288086 70.0 
196.028488 138.0 
196.10173 282.0 
196.394012 109.0 
196.538757 95.0 
197.047043 117.0 
197.086716 56.0 
197.353119 101.0 
198.075745 234.0 
199.050766 279.0 
199.09816 150.0 
203.939667 117.0 
204.805649 181.0 
205.214233 99.0 
205.563309 281.0 
207.000732 85.0 
207.6474 109.0 
207.904037 109.0 
208.109299 260.0 
208.624496 117.0 
208.737976 357.0 
208.906189 151.0 
208.96019 114.0 
208.991699 216.0 
209.042831 572.0 
209.117584 315490.0 
209.194138 303.0 
209.232162 55.0 
209.2565 160.0 
209.338577 275.0 
209.379501 127.0 
209.433533 134.0 
209.589081 82.0 
209.833237 81.0 
209.943787 101.0 
210.020157 106.0 
210.055054 176.0 
210.121307 28184.0 
210.200684 139.0 
210.674866 147.0 
210.747818 93.0 
211.120468 562.0 
211.299057 254.0 
211.515808 97.0 
211.558929 119.0 
211.630188 94.0 
211.668243 198.0 
211.711487 77.0 
211.73703 118.0 
211.778015 251.0 
211.8069 145.0 
212.794006 151.0 
218.921341 70.0 
220.00415 58.0 
220.113144 233.0 
220.843079 60.0 
221.48558 57.0 
222.027374 203.0 
223.000046 100.0 
223.540497 71.0 
225.40715 79.0 
230.961227 157.0 
237.288528 126.0 
240.022446 134.0 
241.026947 284.0 
251.05687 167.0 
253.576431 127.0 
255.059296 176.0 
281.147705 106.0 
356.105896 300.0 
357.655609 97.0 
421.186798 93.0 
469.638794 119.0 
611.442505 93.0 
1247.043335 88.0 
1366.549805 258.0 
1563.62207 314.0 
1593.168335 94.0 
1620.889038 235.0 
1624.099609 167.0 
1697.747437 264.0 
1750.372681 250.0 
1769.503906 213.0 
1783.284668 183.0 
1813.209473 176.0 
1851.22876 181.0 
1876.812378 289.0 
1889.258057 160.0 
1931.952148 154.0 
1937.873657 308.0 
1964.237305 443.0 
1999.37793 195.0 
END IONS

BEGIN IONS
TITLE=Scan Number: 335
PEPMASS=406.22299
CHARGE=1+
MSLEVEL=2
FILENAME=E10_GE10_01_2635.mzXML
INSTRUMENT=ion trap
SCANS=335
SMILES=COC1=CC(CC(C)OC2=C(OC)C=C(\C=C\CO)C=C2)=CC(OC)=C1OC
INCHIKEY=CZVGIALASULOAU-VOTSOKGWSA-N
77.039963 256.0 
77.323502 253.0 
90.043976 209.0 
91.054031 1621.0 
91.173309 263.0 
92.05394 111.0 
93.033463 161.0 
93.068619 183.0 
94.040062 183.0 
94.075012 254.0 
95.0839 180.0 
98.166786 254.0 
99.976784 117.0 
103.054062 1892.0 
104.062904 485.0 
105.042435 970.0 
105.068939 481.0 
106.034401 195.0 
106.075592 290.0 
107.047729 1645.0 
108.053848 475.0 
109.065758 284.0 
110.076698 180.0 
115.053207 929.0 
117.071968 1026.0 
119.048119 3285.0 
119.086456 373.0 
120.003845 98.0 
120.05368 326.0 
120.08989 259.0 
120.718544 298.0 
121.010918 205.0 
121.064682 2951.0 
121.416313 280.0 
121.610245 123.0 
122.033913 420.0 
122.069901 184.0 
123.040596 437.0 
123.078506 657.0 
124.039108 106.0 
124.721291 101.0 
125.056831 672.0 
129.013794 244.0 
130.045746 214.0 
131.049561 6343.0 
131.1763 120.0 
131.197998 126.0 
131.631226 254.0 
132.052719 958.0 
133.030014 1115.0 
133.065231 849.0 
134.024414 180.0 
134.072281 1637.0 
135.044373 899.0 
135.079865 6715.0 
136.01358 147.0 
136.052139 4083.0 
136.085358 679.0 
137.019363 185.0 
137.059708 1977.0 
138.028122 260.0 
138.0681 1817.0 
138.487305 129.0 
139.002777 266.0 
139.075089 287.0 
140.03833 424.0 
144.057617 157.0 
145.062836 261.0 
146.072357 1639.0 
147.043518 6427.0 
147.080704 6181.0 
148.052032 3102.0 
148.087509 1872.0 
149.058197 2745.0 
149.096817 893.0 
150.066391 893.0 
150.095825 133.0 
150.316849 126.0 
150.656326 383.0 
151.040115 817.0 
151.075287 10867.0 
151.389999 122.0 
151.621689 160.0 
152.048065 819.0 
152.082626 989.0 
153.05423 8543.0 
153.090454 261.0 
153.1465 110.0 
154.031509 394.0 
154.061935 1958.0 
154.106934 131.0 
154.193085 137.0 
155.070267 610.0 
156.822388 115.0 
156.999649 89.0 
159.081757 162.0 
159.392319 119.0 
160.095688 194.0 
160.153229 227.0 
161.061066 2283.0 
161.734146 108.0 
161.871063 305.0 
162.066818 6676.0 
163.045044 313.0 
163.075043 16025.0 
163.514618 122.0 
163.559433 147.0 
164.0802 2339.0 
165.056442 5407.0 
165.08873 1128.0 
166.062256 7029.0 
166.100784 286.0 
166.52887 320.0 
167.066391 807.0 
168.0793 19744.0 
169.084305 2018.0 
170.414154 153.0 
175.043655 202.0 
175.077225 657.0 
176.084106 181.0 
177.089905 6665.0 
177.900452 151.0 
177.950851 136.0 
178.048019 390.0 
178.098877 33642.0 
178.217545 103.0 
178.389175 124.0 
178.649078 236.0 
178.95871 140.0 
179.000702 173.0 
179.070206 17187.0 
179.103668 4614.0 
179.363998 144.0 
180.072113 1476.0 
180.106384 235.0 
181.086487 40220.0 
181.303589 101.0 
181.558289 112.0 
181.589081 228.0 
182.088745 3047.0 
182.864792 276.0 
183.086761 244.0 
183.587006 238.0 
190.097992 222.0 
193.082642 102.0 
194.093857 37947.0 
195.096313 3092.0 
196.671432 139.0 
206.155029 323.0 
207.100159 700.0 
207.807343 134.0 
208.108231 123.0 
208.295319 112.0 
208.655167 176.0 
208.740768 272.0 
208.886642 452.0 
208.997177 107.0 
209.040359 328.0 
209.117676 163494.0 
209.19223 298.0 
209.280548 204.0 
209.358459 242.0 
209.437592 268.0 
209.731918 106.0 
210.037201 233.0 
210.120346 17481.0 
210.720001 131.0 
211.123947 614.0 
211.291382 116.0 
211.390259 162.0 
211.457916 138.0 
211.662933 134.0 
211.727203 163.0 
211.858841 99.0 
223.095337 167.0 
253.092361 143.0 
266.092834 130.0 
298.122681 191.0 
300.280151 200.0 
308.142365 240.0 
309.151611 200.0 
328.157867 208.0 
353.648468 276.0 
371.262726 149.0 
603.530884 186.0 
766.554016 196.0 
1458.027588 105.0 
1541.466309 127.0 
1665.841187 198.0 
1839.532959 255.0 
1867.296143 173.0 
1903.490356 239.0 
1957.599609 333.0 
END IONS

BEGIN IONS
TITLE=Scan Number: 336
PEPMASS=579.17102
CHARGE=1+
MSLEVEL=2
FILENAME=E10_GE10_01_2635.mzXML
INSTRUMENT=ion trap
SCANS=336
SMILES=COC1=C(CO)C(O[C@@H]2O[C@H](CO[C@@H]3OC[C@@H](O)[C@H](O)[C@H]3O)[C@@H](O)[C@H](O)[C@H]2O)=CC4=C1C(=O)C5=CC=CC=C5C4=O
INCHIKEY=XXKWBXGHSBIVHQ-ALLCIABXSA-N
77.887329 316.0 
78.047005 302.0 
81.033623 544.0 
83.01342 2057.0 
84.019997 185.0 
85.026436 1116.0 
89.301086 244.0 
91.018112 121.0 
91.036682 229.0 
97.029182 761.0 
99.046104 443.0 
108.156654 316.0 
113.540855 262.0 
115.036942 747.0 
115.348938 292.0 
122.649864 100.0 
126.642593 138.0 
127.036232 590.0 
128.780212 124.0 
132.999954 212.0 
133.027756 578.0 
133.054596 221.0 
135.044159 195.0 
141.070663 184.0 
141.820084 93.0 
144.517136 125.0 
145.049988 822.0 
145.950821 154.0 
152.063843 584.0 
152.663086 261.0 
153.070145 3009.0 
154.070145 122.0 
155.049072 193.0 
155.089218 382.0 
156.087448 208.0 
157.033264 200.0 
157.060349 119.0 
157.098953 131.0 
159.003464 199.0 
159.045532 183.0 
161.578629 98.0 
162.036072 136.0 
163.060776 181.0 
165.065308 380.0 
165.292679 128.0 
168.052414 190.0 
168.143921 184.0 
169.060074 140.0 
171.082153 164.0 
177.070587 179.0 
180.357666 111.0 
181.019623 215.0 
181.065018 8848.0 
182.068771 1372.0 
183.046143 264.0 
183.083618 808.0 
183.317688 188.0 
184.046616 376.0 
185.028336 333.0 
185.059265 284.0 
185.167953 256.0 
187.081085 466.0 
189.097336 204.0 
189.443817 100.0 
190.049896 170.0 
193.063782 946.0 
194.074081 1031.0 
195.07869 768.0 
196.05278 825.0 
197.062561 223.0 
198.069748 326.0 
199.039474 601.0 
199.072281 985.0 
207.018066 169.0 
209.060944 9913.0 
209.125687 257.0 
210.066193 1600.0 
210.833588 267.0 
211.042206 809.0 
211.074631 2336.0 
211.573639 100.0 
212.056625 496.0 
213.052322 563.0 
215.03157 148.0 
221.060135 728.0 
222.065994 607.0 
224.042618 961.0 
224.663864 252.0 
226.060562 127.0 
227.043503 256.0 
229.198242 265.0 
230.354172 98.0 
231.145844 267.0 
236.991318 208.0 
237.05484 12158.0 
237.631241 169.0 
238.055649 1287.0 
239.038986 125.0 
239.070648 13806.0 
239.83252 124.0 
240.042099 5470.0 
240.077148 1943.0 
241.04808 596.0 
241.479111 111.0 
242.048386 136.0 
242.566895 85.0 
243.826935 294.0 
249.409637 203.0 
251.020126 108.0 
251.077454 167.0 
252.039322 807.0 
254.052109 394.0 
254.563324 308.0 
255.067352 22024.0 
255.314087 120.0 
255.456223 103.0 
255.687775 135.0 
256.069336 2253.0 
257.076233 212.0 
258.075409 99.0 
259.766907 215.0 
262.974243 239.0 
263.096375 201.0 
264.10083 312.0 
265.046143 210.0 
265.421021 207.0 
266.046844 484.0 
266.15332 95.0 
266.340271 168.0 
266.387939 231.0 
266.522888 246.0 
266.844788 120.0 
266.913086 366.0 
267.066528 305987.0 
267.144012 306.0 
267.189392 231.0 
267.318146 131.0 
267.382111 262.0 
267.743317 166.0 
267.805725 339.0 
267.888977 112.0 
268.00589 758.0 
268.069397 35887.0 
268.150238 100.0 
269.009125 256.0 
269.045288 1771.0 
269.072601 2586.0 
269.300262 102.0 
269.320557 160.0 
269.614716 102.0 
269.73114 74.0 
269.802643 331.0 
269.842285 104.0 
269.926941 142.0 
269.991577 111.0 
270.076721 311.0 
270.145966 163.0 
270.255707 118.0 
270.360809 125.0 
271.059479 184.0 
271.483948 203.0 
273.092621 152.0 
276.075592 105.0 
279.02356 88.0 
279.059235 157.0 
279.283936 152.0 
279.553894 86.0 
281.055847 264.0 
284.453156 75.0 
284.690582 171.0 
284.847931 247.0 
284.882782 119.0 
285.07782 38782.0 
285.209656 187.0 
285.74884 88.0 
285.825317 130.0 
286.080505 4366.0 
287.067688 233.0 
288.054108 131.0 
288.178192 180.0 
289.22876 163.0 
293.047028 329.0 
294.057312 185.0 
298.085785 180.0 
303.058594 263.0 
309.087372 260.0 
312.13678 137.0 
315.072479 210.0 
316.490326 110.0 
321.038177 146.0 
328.019501 146.0 
331.05249 400.0 
334.072205 121.0 
335.090973 94.0 
342.883026 196.0 
345.081604 864.0 
346.05545 165.0 
347.052002 213.0 
349.052612 211.0 
359.01123 228.0 
363.08194 519.0 
364.090668 142.0 
369.073181 150.0 
371.658142 223.0 
375.048004 152.0 
377.018555 150.0 
381.077026 164.0 
391.034821 127.0 
395.043457 174.0 
398.617828 158.0 
399.069672 199.0 
399.111328 2969.0 
400.113312 135.0 
417.126434 501.0 
429.129211 650.0 
431.133057 84.0 
447.134125 306.0 
455.031555 175.0 
505.079498 174.0 
540.133911 235.0 
578.353577 312.0 
617.128845 135.0 
901.162415 108.0 
1298.154785 132.0 
1824.658569 114.0 
END IONS

BEGIN IONS
TITLE=Scan Number: 337
PEPMASS=596.198
CHARGE=1+
MSLEVEL=2
FILENAME=E10_GE10_01_2635.mzXML
INSTRUMENT=ion trap
SCANS=337
SMILES=COC1=C(CO)C(O[C@@H]2O[C@H](CO[C@@H]3OC[C@@H](O)[C@H](O)[C@H]3O)[C@@H](O)[C@H](O)[C@H]2O)=CC4=C1C(=O)C5=CC=CC=C5C4=O
INCHIKEY=XXKWBXGHSBIVHQ-ALLCIABXSA-N
81.29377 237.0 
83.016182 654.0 
85.02755 111.0 
97.027275 1329.0 
97.376045 329.0 
105.03437 194.0 
114.017342 154.0 
115.039772 642.0 
116.987427 244.0 
122.608871 293.0 
127.036911 149.0 
128.977066 96.0 
132.065811 260.0 
133.049698 306.0 
145.049927 916.0 
150.973465 236.0 
152.060516 166.0 
152.431686 290.0 
153.066254 203.0 
158.996201 133.0 
165.009415 291.0 
165.071243 207.0 
168.924911 279.0 
169.062149 193.0 
171.218307 88.0 
176.089996 148.0 
176.883072 174.0 
181.064438 1183.0 
182.068069 404.0 
185.059723 252.0 
185.527161 232.0 
191.040115 115.0 
191.095734 394.0 
193.064621 321.0 
194.085922 235.0 
196.00351 115.0 
197.064316 133.0 
198.422089 279.0 
199.032776 127.0 
201.006454 110.0 
203.02597 206.0 
205.001846 364.0 
207.021729 207.0 
209.060837 2514.0 
211.036743 174.0 
211.080643 335.0 
212.053116 140.0 
213.017395 220.0 
214.063034 182.0 
215.132294 267.0 
219.015564 130.0 
219.035934 232.0 
220.511368 186.0 
221.057816 137.0 
222.058701 101.0 
223.062576 563.0 
224.044022 115.0 
225.055069 128.0 
227.073761 143.0 
228.040039 225.0 
232.828796 249.0 
235.85701 224.0 
237.021362 216.0 
237.058029 2014.0 
238.059464 306.0 
239.075058 3531.0 
240.041275 1486.0 
241.052261 613.0 
241.868362 116.0 
242.190292 98.0 
248.368607 157.0 
253.051544 1166.0 
253.219666 171.0 
254.049179 222.0 
255.013489 125.0 
255.066925 10726.0 
256.066193 772.0 
265.74649 161.0 
266.197998 114.0 
266.273743 154.0 
266.562927 127.0 
266.622406 281.0 
266.822906 139.0 
266.856598 146.0 
266.957184 365.0 
266.993042 134.0 
267.066376 117892.0 
267.151428 123.0 
267.193329 99.0 
267.315338 247.0 
267.438171 175.0 
267.514984 152.0 
267.725891 91.0 
267.77417 110.0 
267.911926 162.0 
268.016602 358.0 
268.070404 17400.0 
268.195984 264.0 
269.059357 976.0 
269.411407 181.0 
269.957458 104.0 
270.052856 130.0 
271.544861 262.0 
276.093018 221.0 
277.003265 113.0 
279.00116 83.0 
279.068634 354.0 
284.534851 105.0 
284.61676 107.0 
285.07666 29899.0 
286.083374 4916.0 
293.05899 174.0 
295.064606 387.0 
301.082703 181.0 
303.015411 144.0 
309.068268 589.0 
314.09491 254.0 
318.066315 221.0 
324.076538 151.0 
325.946075 198.0 
329.93277 97.0 
331.018799 141.0 
343.037018 308.0 
344.969513 139.0 
345.034058 306.0 
345.994843 138.0 
346.042236 167.0 
346.27652 211.0 
347.059265 220.0 
349.043793 155.0 
351.016205 376.0 
351.066467 265.0 
355.02124 184.0 
362.036316 167.0 
363.088806 453.0 
369.033325 326.0 
371.033234 116.0 
381.089752 279.0 
382.120148 117.0 
383.061859 175.0 
397.07663 252.0 
398.676422 114.0 
399.107666 3566.0 
399.369507 93.0 
399.414032 247.0 
400.122589 365.0 
411.032593 122.0 
412.125305 117.0 
417.116852 847.0 
418.118988 163.0 
428.582764 97.0 
429.113373 1052.0 
430.125641 135.0 
442.935608 111.0 
447.036316 129.0 
447.127136 1187.0 
448.139587 118.0 
451.105682 437.0 
456.11145 401.0 
467.075745 136.0 
517.265259 185.0 
561.176392 125.0 
563.033813 142.0 
593.565369 89.0 
595.296021 122.0 
598.153931 159.0 
617.10614 110.0 
819.145264 188.0 
END IONS

BEGIN IONS
TITLE=Scan Number: 342
PEPMASS=411.20099
CHARGE=1+
MSLEVEL=2
FILENAME=C6_GC6_01_2698.mzXML
INSTRUMENT=ion trap
SCANS=342
SMILES=COC(=O)C(=C)C1C(O)C(C(=C)CO)C(C)(CC1OC(=O)C(=C)C(O)CO)C=C
INCHIKEY=PUUYULQKNFTVDK-UHFFFAOYSA-N
70.001396 220.0 
72.47274 204.0 
72.827744 286.0 
73.529488 190.0 
76.773247 115.0 
77.023605 205.0 
77.039551 474.0 
78.340889 129.0 
79.033371 202.0 
79.053345 1591.0 
81.03273 926.0 
81.069328 2128.0 
81.381332 90.0 
82.034996 123.0 
82.070541 191.0 
83.055191 227.0 
83.232567 200.0 
88.527275 228.0 
91.055016 9283.0 
91.141228 143.0 
91.899391 251.0 
92.056969 621.0 
92.855179 214.0 
93.031914 414.0 
93.06884 4119.0 
94.072701 537.0 
94.833191 164.0 
95.027687 281.0 
95.048294 1906.0 
95.084274 1040.0 
96.049286 166.0 
96.407578 136.0 
97.065697 495.0 
97.413452 215.0 
99.079102 130.0 
99.708099 248.0 
102.714828 100.0 
103.054329 3440.0 
104.015053 198.0 
104.057472 496.0 
105.045349 2674.0 
105.069847 5767.0 
106.046425 397.0 
106.073578 709.0 
107.046173 400.0 
107.084953 4029.0 
108.055801 499.0 
109.02626 270.0 
109.065254 949.0 
110.066681 155.0 
111.045845 193.0 
111.081017 434.0 
114.065468 145.0 
115.021332 109.0 
115.054031 3172.0 
116.060059 1567.0 
117.069931 9170.0 
118.075409 2496.0 
118.900726 172.0 
119.059761 2725.0 
119.085548 16484.0 
120.051636 486.0 
120.074661 465.0 
120.091156 1276.0 
121.064438 4583.0 
121.103455 291.0 
123.043594 2336.0 
123.080376 515.0 
124.081787 148.0 
124.170586 217.0 
125.008362 305.0 
125.058235 312.0 
126.283478 227.0 
127.983284 82.0 
128.060654 4898.0 
128.08371 193.0 
129.070023 7270.0 
130.074646 2869.0 
131.024979 172.0 
131.050278 1499.0 
131.084702 11886.0 
132.088181 1193.0 
132.906357 135.0 
133.064285 3188.0 
133.10112 1469.0 
134.073273 844.0 
134.109619 224.0 
134.882156 152.0 
135.043137 181.0 
135.080429 13737.0 
135.142578 116.0 
135.481689 135.0 
136.087006 3049.0 
136.956085 89.0 
137.059967 448.0 
137.090683 398.0 
138.094803 179.0 
138.582306 280.0 
140.073181 283.0 
141.070129 9059.0 
142.077316 9153.0 
142.357437 71.0 
142.917587 248.0 
143.001083 211.0 
143.085724 20614.0 
143.483337 145.0 
144.053299 120.0 
144.090714 3574.0 
144.734024 131.0 
145.030258 161.0 
145.063477 3455.0 
145.100296 5901.0 
145.14389 133.0 
145.35524 75.0 
146.069534 849.0 
146.104752 564.0 
146.259949 197.0 
147.010941 166.0 
147.047531 702.0 
147.079498 6173.0 
147.118393 973.0 
147.291183 76.0 
149.060654 1223.0 
149.095596 584.0 
150.007004 232.0 
150.760361 214.0 
151.076599 457.0 
151.108612 159.0 
152.055527 304.0 
152.960709 171.0 
153.069717 9083.0 
154.076492 3987.0 
154.192917 176.0 
155.085587 17413.0 
156.090973 3300.0 
156.381439 81.0 
157.063934 1130.0 
157.100586 6326.0 
158.071869 553.0 
158.104279 1341.0 
158.814423 81.0 
159.047195 435.0 
159.081207 3359.0 
159.11554 1326.0 
159.662827 97.0 
160.084732 1324.0 
161.065079 459.0 
161.09581 2327.0 
161.164612 210.0 
162.043823 329.0 
162.063293 494.0 
162.102844 185.0 
163.073746 585.0 
163.112686 250.0 
164.063492 116.0 
165.070969 688.0 
165.090515 536.0 
166.076385 1047.0 
167.084335 5128.0 
168.066406 600.0 
168.093033 16775.0 
168.778412 122.0 
169.068069 1482.0 
169.10051 4826.0 
170.064819 166.0 
170.102997 645.0 
170.455994 176.0 
171.080872 2572.0 
171.118561 2461.0 
172.047684 115.0 
172.086853 679.0 
172.115051 368.0 
173.058685 1121.0 
173.096207 1802.0 
173.132889 6380.0 
173.48381 154.0 
174.095001 216.0 
174.114136 245.0 
174.133743 797.0 
175.075394 1504.0 
175.110855 2059.0 
175.813171 172.0 
177.067154 148.0 
177.094177 197.0 
178.078369 1634.0 
179.032196 84.0 
179.074234 592.0 
179.107513 736.0 
179.775146 206.0 
180.109695 83.0 
181.041473 166.0 
181.065445 686.0 
181.099411 1362.0 
181.504822 130.0 
181.761856 138.0 
182.053787 168.0 
182.088272 130.0 
182.114792 347.0 
182.934128 130.0 
183.116989 37023.0 
183.661301 186.0 
184.086212 354.0 
184.120163 4316.0 
185.094345 1506.0 
185.131165 371.0 
186.105865 608.0 
186.13858 305.0 
187.07309 654.0 
187.112488 943.0 
189.086075 106.0 
189.110016 251.0 
189.128906 287.0 
190.098572 127.0 
191.136078 228.0 
192.104538 76.0 
193.061203 232.0 
193.099609 2516.0 
195.083572 734.0 
196.092102 901.0 
197.086777 128.0 
197.438141 114.0 
199.0793 163.0 
199.11087 901.0 
199.156769 221.0 
200.121338 468.0 
201.093201 1684.0 
201.127319 13361.0 
202.13353 2122.0 
202.284363 136.0 
203.067154 141.0 
203.106003 1954.0 
203.13913 143.0 
204.113876 266.0 
205.082291 271.0 
205.119476 276.0 
206.123581 116.0 
209.042252 396.0 
209.102982 254.0 
210.102371 380.0 
210.960739 132.0 
211.076263 124.0 
211.1129 8067.0 
211.167923 90.0 
211.539459 113.0 
212.108047 720.0 
213.80101 164.0 
214.095551 206.0 
215.10704 236.0 
215.140366 517.0 
216.147461 241.0 
217.131927 287.0 
219.100693 199.0 
219.138565 186.0 
225.049576 206.0 
228.117111 508.0 
229.122253 9631.0 
229.646973 155.0 
230.124695 1642.0 
231.133957 882.0 
233.117661 99.0 
233.149872 422.0 
243.138168 4119.0 
244.14003 796.0 
244.18602 107.0 
247.140015 301.0 
261.149261 2251.0 
262.152557 148.0 
279.161255 4128.0 
280.162048 997.0 
281.850372 77.0 
411.292389 94.0 
528.235352 122.0 
1092.634521 413.0 
1222.65332 136.0 
1349.187988 171.0 
1436.180054 257.0 
1469.046997 164.0 
1577.932251 182.0 
1657.278564 173.0 
1658.866455 225.0 
1692.390747 234.0 
1699.46106 119.0 
1778.224854 254.0 
1810.734131 213.0 
1914.696655 170.0 
END IONS

BEGIN IONS
TITLE=Scan Number: 343
PEPMASS=480.22299
CHARGE=1+
MSLEVEL=2
FILENAME=C6_GC6_01_2698.mzXML
INSTRUMENT=ion trap
SCANS=343
SMILES=O[C@@H]1CO[C@@H](OC(CCC2=CC=C(O)C(O)=C2)CC(=O)CCC3=CC=C(O)C=C3)[C@H](O)[C@H]1O
INCHIKEY=KQQLSXWIDDTWRR-WUOZLOAJSA-N
73.027061 413.0 
85.024727 247.0 
91.273766 129.0 
91.51413 140.0 
92.142212 159.0 
92.434998 287.0 
93.031822 172.0 
97.10321 248.0 
103.052795 490.0 
103.548058 136.0 
105.072525 453.0 
105.701492 197.0 
106.0737 244.0 
107.048759 9765.0 
108.049728 755.0 
122.986145 160.0 
123.043747 13994.0 
124.048027 535.0 
131.048203 1465.0 
132.749878 306.0 
133.04332 483.0 
133.064911 6472.0 
134.064926 350.0 
137.065384 193.0 
137.094986 220.0 
141.294159 116.0 
145.066589 581.0 
147.080551 424.0 
147.949036 231.0 
149.059601 6188.0 
150.062531 1204.0 
151.076035 185.0 
152.081589 118.0 
163.075546 3458.0 
163.260406 90.0 
165.054749 1925.0 
165.086761 573.0 
166.055496 179.0 
167.075165 97.0 
169.069778 195.0 
173.060318 246.0 
175.074478 121.0 
177.093582 861.0 
181.086105 308.0 
187.106522 199.0 
191.105179 398.0 
192.108444 200.0 
193.058502 148.0 
193.087814 1147.0 
198.077591 129.0 
199.072983 349.0 
202.092911 157.0 
207.078049 347.0 
207.102997 1402.0 
208.092133 109.0 
219.094818 140.0 
253.077026 168.0 
295.135162 1069.0 
296.138763 269.0 
313.144958 4540.0 
314.149048 749.0 
331.153748 1645.0 
331.65509 226.0 
332.17276 213.0 
517.180054 90.0 
END IONS

BEGIN IONS
TITLE=Scan Number: 344
PEPMASS=501.15201
CHARGE=1+
MSLEVEL=2
FILENAME=C6_GC6_01_2698.mzXML
INSTRUMENT=ion trap
SCANS=344
SMILES=O[C@@H]1CO[C@@H](OC(CCC2=CC=C(O)C(O)=C2)CC(=O)CCC3=CC=C(O)C=C3)[C@H](O)[C@H]1O
INCHIKEY=KQQLSXWIDDTWRR-WUOZLOAJSA-N
71.032303 324.0 
71.047485 2131.0 
72.223976 128.0 
74.691498 86.0 
80.586266 192.0 
81.0336 140.0 
82.190933 252.0 
83.048203 234.0 
85.026863 5876.0 
85.942543 167.0 
86.015213 144.0 
86.030029 480.0 
87.041443 144.0 
89.038406 186.0 
90.035812 156.0 
93.867744 247.0 
97.016068 196.0 
101.063751 191.0 
105.032097 175.0 
108.175781 245.0 
111.045212 1725.0 
112.313644 179.0 
117.027245 458.0 
119.033165 189.0 
121.026901 158.0 
122.036026 378.0 
124.75174 204.0 
126.956802 164.0 
127.038261 125.0 
127.155472 193.0 
127.763725 373.0 
129.053696 934.0 
131.142868 280.0 
132.140457 127.0 
132.172821 290.0 
132.956985 260.0 
133.028702 18634.0 
133.106674 310.0 
134.03183 2278.0 
137.059769 4600.0 
138.066742 416.0 
147.070694 334.0 
149.027328 165.0 
149.059372 2448.0 
150.032791 490.0 
150.060699 110.0 
151.037781 211.0 
151.066971 116.0 
153.07103 168.0 
161.022736 832.0 
161.297516 378.0 
162.354095 97.0 
164.049164 156.0 
164.83049 144.0 
165.055283 4434.0 
165.23378 97.0 
166.057938 495.0 
172.058548 111.0 
173.450241 148.0 
177.188904 248.0 
177.982788 154.0 
178.026276 15640.0 
178.60881 228.0 
179.031174 1418.0 
184.77446 147.0 
187.514694 137.0 
188.4133 134.0 
188.877716 249.0 
190.83461 181.0 
191.036804 130.0 
191.704788 172.0 
192.034637 460.0 
192.067825 127.0 
192.190323 105.0 
192.228668 144.0 
192.327667 86.0 
192.479584 255.0 
192.650787 614.0 
192.711029 149.0 
192.771057 317.0 
192.883499 317.0 
192.961227 337.0 
193.050049 347728.0 
193.141617 193.0 
193.250687 173.0 
193.279099 221.0 
193.330017 258.0 
193.425064 291.0 
193.631378 80.0 
193.883774 97.0 
193.920197 110.0 
194.005005 320.0 
194.053589 29469.0 
194.253326 104.0 
194.712891 117.0 
194.918533 77.0 
195.053284 1329.0 
195.156815 179.0 
195.260742 119.0 
195.437424 105.0 
195.488815 189.0 
195.570862 303.0 
195.623718 261.0 
203.035172 109.0 
207.047073 97.0 
208.056396 92.0 
209.038055 182.0 
209.419296 119.0 
210.636444 102.0 
214.046478 154.0 
237.072113 152.0 
261.075043 677.0 
262.075989 152.0 
270.054077 128.0 
285.078278 534.0 
352.605042 185.0 
355.106201 4334.0 
355.17511 83.0 
356.10788 557.0 
465.143188 130.0 
740.422424 71.0 
1176.282837 252.0 
1799.855469 128.0 
1850.638306 222.0 
1932.265991 254.0 
1982.162964 159.0 
END IONS

BEGIN IONS
TITLE=Scan Number: 346
PEPMASS=539.11603
CHARGE=1+
MSLEVEL=2
FILENAME=C6_GC6_01_2698.mzXML
INSTRUMENT=ion trap
SCANS=346
SMILES=COC1=C(OC2OC(COC3OC(C)C(O)C(O)C3O)C(O)C(O)C2O)C=C4OC(=O)C=CC4=C1
INCHIKEY=FCIZPHNZRNLUJD-UHFFFAOYSA-N
76.369438 137.0 
83.046509 293.0 
92.650665 218.0 
93.031067 125.0 
99.667778 121.0 
107.049377 217.0 
111.04306 136.0 
119.02636 195.0 
119.049728 734.0 
121.027466 12795.0 
122.034172 365.0 
131.046432 299.0 
133.020599 110.0 
139.957397 128.0 
143.045563 126.0 
145.03038 551.0 
146.029144 372.0 
153.018372 250.0 
155.013901 156.0 
157.098846 251.0 
158.071228 209.0 
159.043808 134.0 
160.049988 167.0 
163.040878 1208.0 
163.412842 131.0 
165.012299 249.0 
169.022217 279.0 
174.140228 160.0 
179.029633 175.0 
184.01561 158.0 
184.439545 97.0 
186.999283 146.0 
189.017197 538.0 
190.01828 213.0 
191.846008 108.0 
193.064041 150.0 
197.010864 178.0 
197.044235 121.0 
201.020248 817.0 
201.053955 191.0 
202.030457 109.0 
203.033249 267.0 
205.012238 179.0 
207.027054 284.0 
207.067215 162.0 
207.112396 136.0 
214.223862 112.0 
215.625732 200.0 
227.039749 111.0 
228.985214 160.0 
229.014679 1059.0 
230.012085 182.0 
231.030029 129.0 
233.006058 421.0 
235.025879 249.0 
237.598206 201.0 
239.159042 87.0 
240.529007 95.0 
241.011215 244.0 
242.034576 158.0 
246.123413 161.0 
247.020248 303.0 
247.07782 175.0 
253.046432 101.0 
255.019562 168.0 
257.006805 2300.0 
259.021149 986.0 
260.017731 172.0 
269.041351 132.0 
269.204468 129.0 
270.047272 261.0 
273.03244 339.0 
274.979156 120.0 
275.018951 4082.0 
275.07486 118.0 
277.039062 164.0 
278.062958 154.0 
279.071136 153.0 
283.02475 372.0 
283.063049 2659.0 
284.060394 249.0 
286.008453 216.0 
286.391571 157.0 
291.017456 348.0 
291.072235 430.0 
292.158478 131.0 
293.081055 175.0 
293.18692 147.0 
297.046204 275.0 
301.032684 124.0 
302.051727 123.0 
303.06131 325.0 
304.394592 154.0 
305.042053 2815.0 
306.051666 590.0 
307.060242 3375.0 
308.063416 936.0 
308.998047 199.0 
309.028839 571.0 
310.042114 375.0 
311.02887 132.0 
311.053253 420.0 
313.053131 151.0 
316.072815 148.0 
319.063507 1846.0 
320.064148 451.0 
321.071594 1319.0 
322.032471 131.0 
322.08075 86.0 
323.0065 154.0 
323.050964 959.0 
329.046814 176.0 
329.550659 120.0 
330.05368 109.0 
331.058472 678.0 
332.522919 103.0 
333.042175 2072.0 
334.012543 217.0 
334.040436 452.0 
335.055786 3450.0 
335.297577 128.0 
336.0495 112.0 
337.027466 768.0 
337.616333 96.0 
338.034454 184.0 
345.065735 136.0 
346.033386 142.0 
346.422424 120.0 
346.86496 141.0 
347.054413 12831.0 
348.055908 4843.0 
349.071381 1584.0 
349.770111 172.0 
350.082825 261.0 
351.07019 228.0 
351.101959 367.0 
355.047394 444.0 
356.057739 146.0 
358.960632 156.0 
359.054749 475.0 
360.052399 112.0 
361.030426 935.0 
363.019958 107.0 
365.064667 283.0 
365.972717 158.0 
366.070648 203.0 
368.868073 355.0 
369.236725 132.0 
371.086609 109.0 
373.06723 1434.0 
373.783081 213.0 
374.069702 709.0 
374.782288 198.0 
374.980743 112.0 
375.047913 9458.0 
375.631256 121.0 
375.998993 222.0 
376.054657 2122.0 
376.825378 248.0 
376.983643 169.0 
377.065643 25389.0 
378.06723 4201.0 
379.042358 3623.0 
380.03891 658.0 
381.053619 135.0 
384.175262 153.0 
385.717651 130.0 
388.552399 103.0 
389.079224 164.0 
391.021484 276.0 
399.078461 134.0 
399.660675 80.0 
400.078979 842.0 
400.837982 135.0 
401.066833 7325.0 
402.073547 1947.0 
402.555969 92.0 
402.873566 136.0 
402.934967 283.0 
402.993286 899.0 
403.044617 28591.0 
403.881439 379.0 
404.047852 4548.0 
405.045349 410.0 
413.101471 106.0 
418.057983 207.0 
419.075562 14276.0 
419.208191 82.0 
420.079285 2938.0 
421.003265 618.0 
421.056244 9136.0 
422.052368 2165.0 
422.297882 269.0 
422.500153 74.0 
423.066498 890.0 
424.394073 241.0 
427.071716 167.0 
433.282593 138.0 
440.977661 96.0 
441.098389 373.0 
445.066132 642.0 
455.103424 181.0 
465.092499 115.0 
468.089386 497.0 
469.036499 104.0 
469.078552 147.0 
471.124908 185.0 
474.032074 296.0 
477.315002 206.0 
488.823822 138.0 
493.09729 194.0 
495.100189 143.0 
496.081879 143.0 
497.056305 363.0 
497.091858 475.0 
497.42514 169.0 
498.094025 115.0 
499.098999 188.0 
511.080078 118.0 
513.127869 138.0 
516.051392 236.0 
519.902161 104.0 
521.024109 124.0 
521.090942 1809.0 
522.096741 128.0 
532.749695 113.0 
535.590332 94.0 
535.755554 107.0 
536.589417 83.0 
537.488708 278.0 
538.433777 146.0 
538.652527 391.0 
538.719482 107.0 
538.887756 736.0 
538.935364 557.0 
538.981812 1910.0 
539.096375 117824.0 
539.275024 273.0 
539.571289 91.0 
539.674072 88.0 
539.731995 151.0 
539.947693 237.0 
540.10199 27932.0 
540.219299 371.0 
541.001526 204.0 
541.101257 1135.0 
541.819641 83.0 
542.49292 102.0 
542.727417 87.0 
542.766602 122.0 
543.262207 137.0 
543.471252 203.0 
543.811768 90.0 
544.143494 99.0 
544.358704 101.0 
1511.336792 356.0 
END IONS

BEGIN IONS
TITLE=Scan Number: 352
PEPMASS=368.134
CHARGE=1+
MSLEVEL=2
FILENAME=A5_RA5_01_2888.mzXML
INSTRUMENT=ion trap
SCANS=352
SMILES=COC(=O)CC1CC2(O)C(=O)C3=C(O)C=CC=C3C(=O)C2(O)C(C)O1
INCHIKEY=HILBWEPXZDMOAE-UHFFFAOYSA-N
71.01368 177.0 
85.027809 98.0 
95.0103 179.0 
103.054909 134.0 
111.045151 182.0 
115.049065 250.0 
119.012344 184.0 
121.028587 1799.0 
129.042725 219.0 
129.065964 153.0 
130.072998 173.0 
131.045334 206.0 
131.081207 200.0 
133.063034 349.0 
134.069336 143.0 
134.106644 121.0 
139.05452 197.0 
143.030365 206.0 
143.047119 204.0 
145.063461 545.0 
147.046753 411.0 
147.085205 169.0 
152.944199 165.0 
154.060745 132.0 
157.066666 1383.0 
157.445206 130.0 
159.046722 1075.0 
159.081085 252.0 
159.133484 140.0 
161.060043 897.0 
165.018295 1799.0 
165.669678 96.0 
166.023956 375.0 
167.049286 270.0 
168.038254 150.0 
169.028809 208.0 
169.070969 181.0 
171.023529 73.0 
171.046677 150.0 
173.026062 173.0 
173.060822 204.0 
174.979126 163.0 
175.016022 124.0 
175.040131 2033.0 
175.072678 589.0 
175.129517 150.0 
176.044144 253.0 
182.059158 127.0 
182.080765 296.0 
184.056976 144.0 
184.739334 115.0 
185.059143 1366.0 
187.040085 1272.0 
187.075867 327.0 
189.022079 409.0 
189.052856 2266.0 
190.056366 444.0 
191.022949 281.0 
198.218842 138.0 
199.035263 262.0 
200.044281 317.0 
201.052597 349.0 
202.053009 254.0 
203.030014 83.0 
203.069885 787.0 
209.068542 152.0 
209.274551 207.0 
211.076462 329.0 
213.052216 2882.0 
213.685471 234.0 
214.05481 138.0 
215.002258 201.0 
215.031067 637.0 
215.074722 567.0 
215.141006 152.0 
216.033691 104.0 
217.049637 3362.0 
218.053314 607.0 
221.045578 208.0 
222.041397 85.0 
223.023209 119.0 
227.072708 305.0 
228.078018 162.0 
229.047485 1347.0 
230.732132 135.0 
231.016724 115.0 
231.065247 1276.0 
241.009979 186.0 
241.048752 6267.0 
242.060669 277.0 
243.056747 221.0 
253.043289 185.0 
255.065857 777.0 
256.073456 161.0 
257.04425 265.0 
258.04068 172.0 
258.86731 138.0 
259.059021 11702.0 
259.78479 205.0 
260.060486 347.0 
262.010223 96.0 
262.224457 98.0 
269.393433 180.0 
273.068329 102.0 
273.275726 107.0 
274.081299 273.0 
275.054535 545.0 
277.071136 3754.0 
278.077454 518.0 
283.060944 447.0 
289.06665 727.0 
301.078674 185.0 
315.065643 158.0 
317.09848 176.0 
319.090515 231.0 
351.105835 737.0 
367.180603 258.0 
368.200165 123.0 
1858.687988 225.0 
END IONS

BEGIN IONS
TITLE=Scan Number: 355
PEPMASS=420.194
CHARGE=1+
MSLEVEL=2
FILENAME=A5_RA5_01_2888.mzXML
INSTRUMENT=ion trap
SCANS=355
SMILES=CC1C=CC(=O)C(C)C1(C)\C=C\C(C)=C\CC2=C(O)C(C=O)=C(C)C(Cl)=C2O
INCHIKEY=ZLAQYJKDQSZARB-OGCXVWDESA-N
77.028328 115.0 
79.05365 591.0 
80.378265 147.0 
81.071838 270.0 
81.696777 90.0 
83.085381 545.0 
89.038773 173.0 
91.052528 176.0 
93.06871 185.0 
95.078018 236.0 
95.523445 221.0 
105.04615 153.0 
105.071762 672.0 
106.07299 147.0 
107.048904 271.0 
107.084412 551.0 
107.90657 171.0 
108.055229 1071.0 
109.058113 155.0 
109.085861 369.0 
109.101196 894.0 
116.051491 168.0 
119.086578 652.0 
120.097061 190.0 
121.065697 327.0 
121.100197 1422.0 
122.067505 305.0 
122.099892 167.0 
123.081062 899.0 
125.014732 281.0 
125.095139 107.0 
129.069916 137.0 
131.08226 144.0 
133.018997 180.0 
133.071777 243.0 
133.100479 205.0 
135.044159 731.0 
135.082626 814.0 
135.118484 445.0 
136.087524 139.0 
136.120224 102.0 
137.09639 945.0 
139.019119 202.0 
139.535065 211.0 
141.011169 155.0 
142.794815 139.0 
143.027039 1478.0 
143.087952 172.0 
144.054459 157.0 
145.025421 404.0 
145.098557 119.0 
147.118393 198.0 
149.096252 661.0 
150.067627 525.0 
152.332199 154.0 
155.027588 700.0 
156.028397 140.0 
156.093491 161.0 
160.054688 120.0 
161.025925 141.0 
161.057983 307.0 
161.110153 302.0 
163.039215 290.0 
163.089874 121.0 
163.111313 454.0 
166.656845 131.0 
167.022583 115.0 
169.006531 346.0 
169.038544 100.0 
169.098297 91.0 
170.032166 162.0 
171.020386 2211.0 
171.115799 775.0 
172.024216 298.0 
173.012421 321.0 
173.13797 610.0 
173.634506 293.0 
174.138901 206.0 
176.15271 158.0 
177.165543 322.0 
179.023941 281.0 
181.00383 1045.0 
182.008347 238.0 
183.012939 739.0 
185.01712 227.0 
186.142838 118.0 
187.150085 175.0 
188.153992 232.0 
189.160919 212.0 
191.14357 154.0 
192.195312 181.0 
193.036591 322.0 
195.027023 148.0 
196.999619 16888.0 
197.606216 205.0 
198.005661 1260.0 
198.491638 140.0 
198.942978 316.0 
199.015274 93535.0 
199.144913 86.0 
199.500793 213.0 
199.614822 140.0 
199.887589 261.0 
200.019226 8472.0 
200.889511 171.0 
201.012772 8955.0 
201.297699 89.0 
201.347931 104.0 
201.453995 95.0 
201.576874 128.0 
201.88121 100.0 
202.085861 95.0 
202.106873 165.0 
202.430344 121.0 
202.694382 110.0 
204.153336 249.0 
205.158813 1138.0 
206.161972 358.0 
211.013016 124.0 
211.05188 616.0 
213.030823 1943.0 
213.077393 133.0 
213.99881 157.0 
214.973007 156.0 
215.010773 1011.0 
217.006119 515.0 
217.160995 403.0 
223.020493 201.0 
223.072556 101.0 
225.024704 154.0 
237.032211 310.0 
238.036209 118.0 
239.047089 2880.0 
240.053268 101.0 
240.120117 211.0 
241.060318 1358.0 
251.045807 95.0 
253.059494 483.0 
254.068893 170.0 
255.045929 150.0 
257.053833 229.0 
263.044464 275.0 
265.018921 165.0 
265.057312 139.0 
265.110779 205.0 
266.067963 132.0 
267.073547 168.0 
277.061401 189.0 
279.075439 156.0 
279.221741 128.0 
281.093811 561.0 
289.066559 130.0 
291.073303 543.0 
305.084625 159.0 
309.086884 216.0 
315.067505 93.0 
321.127014 98.0 
331.111938 162.0 
342.090363 128.0 
343.114838 365.0 
345.123993 599.0 
347.144165 96.0 
349.158783 87.0 
358.310669 152.0 
361.153778 154.0 
375.095001 85.0 
375.170013 946.0 
376.179749 257.0 
385.156067 1746.0 
386.163879 437.0 
403.104126 93.0 
403.168243 2212.0 
404.163879 1168.0 
420.283142 248.0 
520.741699 100.0 
1357.923828 201.0 
1804.663574 137.0 
END IONS

BEGIN IONS
TITLE=Scan Number: 357
PEPMASS=413.12299
CHARGE=1+
MSLEVEL=2
FILENAME=A5_RA5_01_2888.mzXML
INSTRUMENT=ion trap
SCANS=357
SMILES=CC(C)(O)CCC1=C2OC3=C(C(=O)C2=C(O)C=C1)C(O)=C4C(OC5OC=CC45O)=C3
INCHIKEY=VXTQFTUOAJRUDO-UHFFFAOYSA-N
73.204086 173.0 
77.885445 200.0 
80.785248 87.0 
92.999352 154.0 
95.049248 202.0 
102.605774 107.0 
107.085175 223.0 
108.022346 204.0 
117.034981 239.0 
118.045158 147.0 
121.027054 586.0 
122.034241 144.0 
123.04216 1244.0 
126.196579 135.0 
126.249695 183.0 
129.071091 176.0 
131.088699 379.0 
133.026855 335.0 
134.0327 351.0 
135.042938 297.0 
135.121613 255.0 
141.068222 132.0 
142.080917 139.0 
143.079208 266.0 
145.069412 139.0 
146.038132 144.0 
146.073074 350.0 
147.083405 88.0 
147.267212 79.0 
149.021637 4565.0 
150.027496 360.0 
151.037277 273.0 
153.324966 283.0 
155.985107 256.0 
157.062927 530.0 
158.077408 245.0 
159.080734 260.0 
160.091171 213.0 
161.020142 307.0 
161.09877 185.0 
162.029709 409.0 
163.037903 5808.0 
164.049286 267.0 
164.075562 106.0 
167.031403 1852.0 
167.081589 119.0 
168.034088 434.0 
169.060532 263.0 
169.148621 245.0 
169.375183 281.0 
171.044266 291.0 
172.047577 520.0 
173.01918 350.0 
173.06163 520.0 
174.029648 135.0 
175.038147 584.0 
175.330551 84.0 
176.024002 133.0 
176.072617 132.0 
177.044357 163.0 
179.05014 203.0 
179.087769 124.0 
179.363358 201.0 
181.06279 92.0 
181.117859 157.0 
181.978424 118.0 
182.069916 141.0 
184.049973 297.0 
185.059235 128.0 
186.282471 254.0 
186.741974 139.0 
187.035004 444.0 
187.069946 490.0 
189.014938 2057.0 
189.647842 102.0 
190.024155 905.0 
191.032623 896.0 
193.895126 240.0 
194.031952 240.0 
195.039673 453.0 
197.057938 170.0 
197.092178 228.0 
197.976471 157.0 
199.039078 159.0 
201.049667 157.0 
202.311966 257.0 
203.0672 196.0 
204.048019 139.0 
205.058792 86.0 
207.029526 426.0 
208.995972 215.0 
209.063263 606.0 
211.068497 400.0 
212.04744 215.0 
213.054413 117.0 
213.450363 114.0 
215.021835 192.0 
215.989639 93.0 
217.047928 119.0 
219.045776 137.0 
220.049103 307.0 
221.096527 180.0 
221.132111 184.0 
223.037491 175.0 
223.290512 171.0 
225.054413 205.0 
225.082703 165.0 
229.101013 204.0 
230.106262 84.0 
231.069153 204.0 
232.088074 118.0 
233.056992 199.0 
234.057297 164.0 
235.069611 163.0 
235.154617 314.0 
235.747223 214.0 
236.057175 134.0 
237.054245 587.0 
237.475281 260.0 
238.060303 4317.0 
239.066101 740.0 
241.012222 126.0 
241.050598 105.0 
241.540756 209.0 
243.069733 134.0 
248.031342 189.0 
249.047714 553.0 
249.086197 136.0 
250.077911 145.0 
250.10675 378.0 
251.068359 336.0 
251.165436 101.0 
251.691559 174.0 
252.037018 603.0 
252.093018 268.0 
253.006653 220.0 
253.041275 558.0 
253.416031 123.0 
254.056503 178.0 
254.094894 225.0 
255.036255 368.0 
256.030701 154.0 
259.031708 195.0 
259.069 80.0 
260.075592 90.0 
261.08844 352.0 
261.536041 97.0 
262.060822 146.0 
263.073425 347.0 
264.074951 182.0 
264.166199 92.0 
264.94928 167.0 
265.049011 17582.0 
265.096313 266.0 
265.140961 183.0 
266.055634 7857.0 
266.617218 164.0 
267.029083 195.0 
267.056793 1193.0 
268.062469 181.0 
268.823273 101.0 
269.595642 143.0 
270.783447 151.0 
271.067261 143.0 
274.05423 151.0 
275.106049 124.0 
275.464722 163.0 
275.606476 146.0 
276.073578 153.0 
276.105408 184.0 
277.052612 139.0 
277.087616 903.0 
278.08902 1108.0 
278.606079 110.0 
278.718597 249.0 
279.013092 236.0 
279.06073 3614.0 
280.067841 1960.0 
281.051208 534.0 
281.08017 1070.0 
281.49054 70.0 
282.04538 104.0 
282.997101 126.0 
283.061981 1019.0 
284.121613 228.0 
285.031982 170.0 
287.037231 165.0 
287.068909 870.0 
288.074799 609.0 
289.025848 107.0 
289.075287 618.0 
290.092987 206.0 
291.061737 1551.0 
291.217194 80.0 
292.077148 808.0 
292.616089 112.0 
292.975433 202.0 
293.041351 4051.0 
293.081055 362.0 
293.114716 303.0 
293.978516 198.0 
294.05072 25177.0 
294.804016 180.0 
295.007568 129.0 
295.053375 3649.0 
295.139557 94.0 
296.058594 283.0 
296.743439 95.0 
297.036743 778.0 
297.551178 88.0 
298.54248 103.0 
299.053833 370.0 
299.457275 139.0 
303.099243 869.0 
304.062897 217.0 
304.92984 203.0 
304.991364 280.0 
305.038483 183.0 
305.080841 4511.0 
306.08728 3055.0 
307.061127 1701.0 
307.996124 139.0 
308.062836 3148.0 
309.009338 212.0 
309.075348 2914.0 
309.282928 90.0 
310.022064 118.0 
310.075806 417.0 
310.587341 233.0 
311.052979 380.0 
311.09021 176.0 
312.0242 93.0 
312.482605 78.0 
313.033752 375.0 
316.082031 625.0 
317.08075 1074.0 
319.059387 4815.0 
320.063934 1826.0 
321.046417 711.0 
321.111542 4788.0 
321.2388 114.0 
322.04361 377.0 
322.11969 249.0 
324.125824 105.0 
330.222626 216.0 
331.09375 1101.0 
332.062683 142.0 
332.104187 156.0 
333.026947 160.0 
333.073792 4947.0 
333.195038 103.0 
334.022919 277.0 
334.081268 13577.0 
335.047882 190.0 
335.083038 2205.0 
335.188354 176.0 
336.062042 126.0 
336.106415 179.0 
336.90686 277.0 
337.063354 533.0 
337.796051 101.0 
339.120819 4019.0 
339.412537 80.0 
340.013733 81.0 
340.133484 463.0 
342.136139 197.0 
342.583282 139.0 
343.997559 134.0 
344.080994 97.0 
348.105072 230.0 
349.107086 13471.0 
350.072784 520.0 
350.109344 3084.0 
350.174927 297.0 
351.082458 268.0 
351.118561 362.0 
352.756073 167.0 
356.215027 296.0 
365.583557 102.0 
366.394562 170.0 
366.772156 153.0 
366.857666 288.0 
366.928558 269.0 
367.013641 1034.0 
367.11676 132820.0 
367.236328 306.0 
367.883026 114.0 
367.990082 98.0 
368.021088 209.0 
368.119232 23013.0 
368.490875 170.0 
368.634186 138.0 
368.910187 149.0 
369.115234 1470.0 
370.109772 117.0 
370.297241 225.0 
370.555573 144.0 
370.610748 455.0 
370.670837 133.0 
371.279846 85.0 
373.498077 104.0 
374.620056 91.0 
385.129059 562.0 
392.726715 87.0 
394.038452 109.0 
394.50119 183.0 
394.706848 88.0 
394.929565 137.0 
394.999359 132.0 
395.111908 40132.0 
395.221375 289.0 
395.273926 96.0 
395.35022 123.0 
396.048584 170.0 
396.114319 7179.0 
396.471619 247.0 
397.125061 287.0 
398.069733 81.0 
398.545715 136.0 
401.677368 87.0 
413.118469 155.0 
413.168884 232.0 
427.189301 140.0 
461.170471 116.0 
END IONS

BEGIN IONS
TITLE=Scan Number: 358
PEPMASS=395.112
CHARGE=1+
MSLEVEL=2
FILENAME=A5_RA5_01_2888.mzXML
INSTRUMENT=ion trap
SCANS=358
SMILES=CC(C)(O)CCC1=C2OC3=C(C(=O)C2=C(O)C=C1)C(O)=C4C(OC5OC=CC45O)=C3
INCHIKEY=VXTQFTUOAJRUDO-UHFFFAOYSA-N
91.05645 251.0 
92.996033 158.0 
117.034103 107.0 
123.006363 193.0 
123.04303 131.0 
130.066162 197.0 
133.066391 245.0 
143.052078 298.0 
146.074066 135.0 
148.570358 180.0 
149.024612 492.0 
149.092697 230.0 
151.037949 173.0 
151.697052 89.0 
153.05101 180.0 
157.008987 276.0 
157.099258 180.0 
161.026184 191.0 
161.057266 195.0 
163.039139 926.0 
173.100967 174.0 
175.114578 93.0 
177.016922 133.0 
182.070145 168.0 
187.105469 156.0 
189.019867 392.0 
191.012894 110.0 
191.064804 155.0 
192.071121 299.0 
193.038742 132.0 
194.024567 210.0 
199.044342 177.0 
200.844238 215.0 
207.040237 92.0 
207.083954 127.0 
209.024765 249.0 
221.33168 192.0 
225.058716 155.0 
236.090164 400.0 
237.051407 306.0 
238.05986 708.0 
239.001282 134.0 
239.065002 381.0 
241.053848 180.0 
242.073196 179.0 
248.050461 242.0 
249.085938 297.0 
250.067688 160.0 
252.098709 267.0 
257.017578 294.0 
265.048553 3711.0 
266.054169 993.0 
267.066833 115.0 
268.333649 108.0 
270.123932 189.0 
279.062836 516.0 
280.039307 230.0 
281.044434 208.0 
281.157349 110.0 
289.076874 277.0 
291.0672 388.0 
292.062164 206.0 
292.978424 130.0 
293.039276 374.0 
293.078949 172.0 
293.111847 445.0 
294.05127 4130.0 
295.046204 401.0 
295.996185 195.0 
305.071198 385.0 
306.09198 312.0 
307.058136 435.0 
308.062347 397.0 
309.075745 108.0 
311.034576 82.0 
316.069 178.0 
319.062561 632.0 
319.105347 164.0 
321.109924 145.0 
322.098877 185.0 
331.09021 208.0 
333.07901 418.0 
334.083313 1203.0 
339.117401 117.0 
340.118347 169.0 
348.099457 288.0 
349.069122 362.0 
349.107147 1793.0 
350.114777 342.0 
350.240356 164.0 
363.154419 270.0 
365.814117 281.0 
367.114929 14037.0 
367.364777 224.0 
368.11731 2170.0 
368.186401 122.0 
377.100006 114.0 
395.110779 2084.0 
395.18103 397.0 
396.18924 130.0 
396.3284 89.0 
397.122345 105.0 
710.370422 168.0 
END IONS

BEGIN IONS
TITLE=Scan Number: 359
PEPMASS=457.134
CHARGE=1+
MSLEVEL=2
FILENAME=A5_RA5_01_2888.mzXML
INSTRUMENT=ion trap
SCANS=359
SMILES=OC[C@@]1(O)CO[C@@H](OC[C@H]2O[C@@H](OC3=CC=C4C=CC(=O)OC4=C3)[C@H](O)[C@@H](O)[C@@H]2O)[C@@H]1O
INCHIKEY=SXPBJYHKMRWZNA-ZITSYKRSSA-N
72.369362 336.0 
73.025414 236.0 
73.103638 202.0 
74.643364 237.0 
76.236115 162.0 
77.038315 127.0 
78.219971 224.0 
78.391075 249.0 
79.053833 114.0 
80.657082 124.0 
81.034798 504.0 
82.037994 156.0 
83.017311 258.0 
84.813972 149.0 
84.975807 245.0 
85.027184 1112.0 
87.044945 149.0 
90.252953 359.0 
90.714249 142.0 
91.054619 3419.0 
93.316925 236.0 
95.046486 223.0 
96.048721 140.0 
96.252563 217.0 
97.028786 1844.0 
97.628685 157.0 
97.696106 173.0 
98.028824 219.0 
99.043442 650.0 
101.906326 197.0 
105.046432 848.0 
106.053909 186.0 
107.049461 14188.0 
107.350365 128.0 
108.052719 1168.0 
108.473015 177.0 
109.027336 157.0 
116.257095 92.0 
118.235382 311.0 
118.955421 93.0 
119.048996 19002.0 
119.202324 211.0 
119.364189 91.0 
120.052628 1407.0 
120.478592 115.0 
120.558548 231.0 
124.929123 192.0 
127.038239 736.0 
128.141418 226.0 
130.265533 385.0 
131.127945 105.0 
133.049255 123.0 
134.359528 358.0 
135.01738 232.0 
135.043762 3017.0 
136.044785 205.0 
137.167877 143.0 
145.047165 708.0 
145.12001 331.0 
145.461166 267.0 
145.947311 292.0 
146.64032 289.0 
148.365891 319.0 
148.450714 187.0 
149.438965 237.0 
151.353607 192.0 
152.331772 198.0 
153.175598 304.0 
153.992371 184.0 
154.518738 209.0 
155.47998 207.0 
156.159821 365.0 
156.382736 213.0 
159.616837 137.0 
160.78743 245.0 
160.92189 199.0 
161.310364 237.0 
162.056107 149.0 
162.260223 326.0 
162.483505 322.0 
162.63446 90.0 
162.666977 162.0 
162.717575 221.0 
162.774155 309.0 
162.804901 81.0 
162.843399 151.0 
162.878769 91.0 
162.9552 584.0 
163.038879 574466.0 
163.099197 262.0 
163.12648 382.0 
163.157166 202.0 
163.18985 139.0 
163.244888 103.0 
163.285492 115.0 
163.336487 109.0 
163.35762 247.0 
163.396866 239.0 
163.508728 181.0 
163.577271 212.0 
163.64679 145.0 
163.760971 166.0 
163.80455 113.0 
163.848053 303.0 
163.883896 165.0 
163.928589 251.0 
164.041931 48796.0 
164.344208 281.0 
164.421631 123.0 
164.441559 247.0 
164.793304 141.0 
164.952896 108.0 
165.043457 766.0 
165.099472 157.0 
165.127518 131.0 
165.158661 123.0 
165.27832 334.0 
165.327652 144.0 
165.417465 243.0 
165.431564 276.0 
165.879211 70.0 
166.384583 80.0 
167.529068 99.0 
167.737595 90.0 
171.834396 122.0 
171.942413 182.0 
173.037445 80.0 
175.766586 113.0 
177.120636 96.0 
177.15332 97.0 
181.050003 360.0 
182.051041 146.0 
217.835495 234.0 
255.077576 146.0 
288.711761 227.0 
294.586639 106.0 
305.007416 175.0 
324.507599 164.0 
325.00531 177.0 
325.046204 1289.0 
325.091888 32604.0 
325.214508 78.0 
325.563538 142.0 
326.096191 3880.0 
328.260101 238.0 
328.339539 182.0 
343.376984 86.0 
439.193115 124.0 
440.933197 165.0 
746.771606 148.0 
1029.508057 83.0 
1065.813232 225.0 
1578.798706 232.0 
1587.807983 200.0 
1671.447876 209.0 
1740.443115 303.0 
1798.802002 226.0 
1805.783813 115.0 
1806.438599 192.0 
1829.966064 301.0 
1852.584717 222.0 
1898.696899 265.0 
1948.672119 201.0 
1950.263916 277.0 
END IONS

BEGIN IONS
TITLE=Scan Number: 360
PEPMASS=474.16101
CHARGE=1+
MSLEVEL=2
FILENAME=A5_RA5_01_2888.mzXML
INSTRUMENT=ion trap
SCANS=360
SMILES=OC[C@@]1(O)CO[C@@H](OC[C@H]2O[C@@H](OC3=CC=C4C=CC(=O)OC4=C3)[C@H](O)[C@@H](O)[C@@H]2O)[C@@H]1O
INCHIKEY=SXPBJYHKMRWZNA-ZITSYKRSSA-N
85.021629 309.0 
91.056152 567.0 
92.057236 254.0 
97.018433 298.0 
107.049179 1508.0 
108.053513 146.0 
119.046883 2417.0 
123.042206 163.0 
123.326851 380.0 
129.851913 146.0 
133.941437 142.0 
134.092834 130.0 
135.045303 566.0 
135.834244 153.0 
136.408371 231.0 
144.027451 285.0 
160.811966 247.0 
162.247864 113.0 
162.522705 136.0 
162.986679 637.0 
163.038513 80630.0 
163.137222 194.0 
164.042755 4702.0 
165.092407 167.0 
165.154556 96.0 
165.179184 99.0 
165.387604 176.0 
167.119553 256.0 
172.32637 120.0 
172.556366 82.0 
180.033813 133.0 
180.435822 178.0 
191.047379 198.0 
193.002136 179.0 
209.03389 286.0 
304.787415 233.0 
325.091675 9789.0 
326.090118 1187.0 
1778.035522 204.0 
1852.574463 162.0 
1959.359619 105.0 
1963.637817 93.0 
END IONS

BEGIN IONS
TITLE=Scan Number: 362
PEPMASS=753.12903
CHARGE=1+
MSLEVEL=2
FILENAME=A5_RA5_01_2888.mzXML
INSTRUMENT=ion trap
SCANS=362
SMILES=OC1C(COC(=O)C2=CC(O)=C(O)C(O)=C2)OC(OC3=C(OC4=CC(O)=CC(O)=C4C3=O)C5=CC=C(O)C=C5)C(OC(=O)C6=CC(O)=C(O)C(O)=C6)C1O
INCHIKEY=GAWOMYRLBFCSGL-UHFFFAOYSA-N
73.410095 118.0 
79.019272 1127.0 
79.399796 239.0 
80.966614 208.0 
81.035049 861.0 
82.76812 340.0 
85.02639 192.0 
88.046799 243.0 
88.625412 172.0 
88.748596 111.0 
91.535301 268.0 
94.538559 194.0 
97.0298 1121.0 
98.630486 125.0 
99.0429 460.0 
101.678917 199.0 
107.013046 510.0 
108.486816 160.0 
109.027534 1513.0 
110.019707 177.0 
111.527908 249.0 
112.523102 171.0 
116.716309 234.0 
119.511215 168.0 
119.726982 146.0 
121.031868 124.0 
122.326309 160.0 
125.021187 1427.0 
125.566216 201.0 
126.030563 166.0 
127.039146 3915.0 
128.043304 289.0 
128.252884 171.0 
130.756378 206.0 
132.455383 239.0 
133.012436 214.0 
134.198914 114.0 
134.349243 204.0 
136.457336 182.0 
139.036346 516.0 
140.5 218.0 
142.181458 187.0 
143.033325 6485.0 
143.256729 161.0 
144.011414 228.0 
144.036163 512.0 
145.04422 215.0 
145.339844 69.0 
147.046494 1098.0 
151.0392 178.0 
151.12413 205.0 
151.308868 222.0 
151.952316 147.0 
152.019409 247.0 
152.391678 153.0 
152.413422 221.0 
152.464706 224.0 
152.573807 176.0 
152.596359 372.0 
152.711487 163.0 
152.810394 130.0 
152.872452 332.0 
152.920959 277.0 
153.017654 571748.0 
153.090286 298.0 
153.135056 352.0 
153.157303 292.0 
153.21019 271.0 
153.243683 187.0 
153.26976 240.0 
153.308273 139.0 
153.330093 108.0 
153.376221 181.0 
153.407547 140.0 
153.533875 269.0 
153.661438 98.0 
153.811493 99.0 
154.021179 32917.0 
154.153488 127.0 
154.190323 90.0 
154.633438 121.0 
154.723999 165.0 
155.021484 3285.0 
155.070572 168.0 
155.128525 108.0 
155.166901 151.0 
155.186478 292.0 
155.281433 447.0 
155.321152 197.0 
155.364182 268.0 
156.016464 212.0 
156.600418 212.0 
159.046631 145.0 
160.934799 286.0 
161.034607 119.0 
161.821411 157.0 
163.035965 313.0 
165.019821 185.0 
166.041397 151.0 
171.027237 1492.0 
173.036758 211.0 
176.654465 127.0 
176.865494 205.0 
177.058289 341.0 
178.089172 190.0 
179.07251 180.0 
180.442688 138.0 
180.824539 246.0 
181.008011 197.0 
187.040634 129.0 
188.769333 115.0 
190.096619 70.0 
191.034348 3420.0 
191.279602 152.0 
191.467926 179.0 
192.034531 782.0 
194.053513 152.0 
195.02597 940.0 
196.02507 110.0 
198.960846 230.0 
200.141525 180.0 
203.055496 173.0 
203.966034 123.0 
205.04834 353.0 
207.024628 442.0 
209.040756 1927.0 
211.024292 122.0 
213.036423 748.0 
217.040344 227.0 
219.032166 519.0 
220.03363 403.0 
221.045593 375.0 
221.360062 104.0 
232.919083 263.0 
233.041763 1177.0 
234.008469 265.0 
235.057007 203.0 
236.073029 188.0 
236.980148 178.0 
237.038635 15809.0 
237.3853 166.0 
237.650879 189.0 
238.041428 1402.0 
239.12384 72.0 
239.263062 110.0 
239.913742 197.0 
239.995483 235.0 
241.006119 165.0 
241.0495 320.0 
248.745804 103.0 
251.55127 144.0 
255.045639 308.0 
255.447083 114.0 
256.034668 193.0 
258.058167 175.0 
259.74057 268.0 
261.04007 1679.0 
262.042694 313.0 
266.022736 232.0 
267.048431 345.0 
268.078888 185.0 
272.116638 191.0 
279.048828 6777.0 
280.053101 722.0 
282.117065 132.0 
283.047516 227.0 
286.031433 207.0 
286.128326 372.0 
286.999451 368.0 
287.054199 26952.0 
287.758728 131.0 
288.022522 208.0 
288.057068 5758.0 
289.061523 215.0 
290.261475 109.0 
297.058655 9721.0 
297.119659 246.0 
297.25824 96.0 
298.062195 876.0 
301.874481 190.0 
305.034546 354.0 
311.05658 433.0 
312.049622 190.0 
315.065948 1631.0 
316.07901 299.0 
323.785522 237.0 
326.002167 224.0 
329.06842 746.0 
332.249207 121.0 
339.112762 148.0 
350.077911 128.0 
353.380829 163.0 
362.018982 116.0 
375.022552 241.0 
376.711792 187.0 
386.058655 111.0 
389.038208 136.0 
395.06546 161.0 
408.23941 88.0 
408.440552 139.0 
411.878754 147.0 
413.088226 128.0 
417.860474 274.0 
430.931396 110.0 
431.05838 797.0 
433.070648 187.0 
439.061737 220.0 
447.838623 171.0 
448.096069 244.0 
448.969391 800.0 
449.070404 53295.0 
449.195923 275.0 
449.442963 132.0 
449.642151 161.0 
449.724609 120.0 
449.946136 89.0 
450.074493 9881.0 
450.12912 166.0 
450.290314 128.0 
451.078339 587.0 
452.189575 105.0 
463.579437 129.0 
465.206573 120.0 
465.991455 179.0 
466.031403 129.0 
466.108673 155.0 
466.187317 79.0 
466.958618 395.0 
467.081177 38498.0 
467.348419 112.0 
467.949158 289.0 
468.022675 150.0 
468.082794 6014.0 
469.088898 937.0 
470.893188 115.0 
471.926117 77.0 
481.065155 367.0 
583.087952 344.0 
601.112793 1117.0 
602.116577 100.0 
654.20929 125.0 
671.152283 101.0 
752.314514 94.0 
753.118652 134.0 
754.133789 163.0 
1242.967896 245.0 
1292.011108 232.0 
1302.325928 413.0 
1306.705078 295.0 
1385.532227 217.0 
1455.314331 246.0 
1514.249634 235.0 
1541.772827 226.0 
1617.836304 193.0 
1708.733887 222.0 
1780.191406 224.0 
1875.266357 262.0 
END IONS

BEGIN IONS
TITLE=Scan Number: 363
PEPMASS=213.10201
CHARGE=1+
MSLEVEL=2
FILENAME=A10_GA10_01_2908.mzXML
INSTRUMENT=ion trap
SCANS=363
SMILES=COC1=CC2=C(C=C1)C3=CC=NC(C)=C3N2
INCHIKEY=BXNJHAXVSOCGBA-UHFFFAOYSA-N
70.930542 129.0 
71.06086 162.0 
71.159126 128.0 
71.341354 85.0 
71.562576 181.0 
71.879723 262.0 
72.103348 182.0 
73.293533 183.0 
75.26355 250.0 
76.027443 358.0 
76.209595 169.0 
77.522018 256.0 
78.048729 175.0 
78.067406 53.0 
78.2883 291.0 
79.17791 210.0 
79.471001 160.0 
79.862572 268.0 
81.328262 133.0 
82.413506 290.0 
82.537178 178.0 
82.641518 208.0 
82.779205 166.0 
82.896172 36.0 
84.420433 140.0 
84.944771 56.0 
85.210823 279.0 
85.606209 293.0 
85.625221 86.0 
85.802605 45.0 
86.632362 196.0 
87.139435 116.0 
87.474205 131.0 
89.045364 412.0 
89.090446 187.0 
89.824577 221.0 
90.047958 795.0 
90.165977 301.0 
90.368446 255.0 
90.608681 51.0 
91.050476 170.0 
92.500977 191.0 
92.819382 240.0 
93.058464 9058.0 
93.678146 18.0 
94.062592 796.0 
94.47525 55.0 
94.658028 309.0 
94.754898 164.0 
95.010658 674.0 
95.310844 129.0 
95.368378 252.0 
96.011902 286.0 
96.04332 154.0 
96.484306 132.0 
96.752312 196.0 
96.929245 354.0 
97.42485 290.0 
97.873856 329.0 
97.940796 187.0 
98.22438 222.0 
98.272934 94.0 
98.39341 154.0 
98.535385 183.0 
98.757698 244.0 
99.021873 133.0 
99.367249 238.0 
99.488708 161.0 
99.87487 276.0 
100.075119 267.0 
100.612801 63.0 
101.293297 148.0 
101.966599 234.0 
102.047424 2735.0 
102.538963 104.0 
103.025024 263.0 
103.044838 680.0 
103.249451 207.0 
103.471535 224.0 
103.725891 67.0 
104.052307 282.0 
104.095192 372.0 
104.228615 124.0 
105.047112 236.0 
105.102226 158.0 
105.340462 129.0 
105.708885 307.0 
106.048973 163.0 
106.397636 118.0 
107.582817 241.0 
107.6595 95.0 
108.328377 125.0 
108.407738 157.0 
108.613716 73.0 
109.605888 205.0 
109.904243 264.0 
109.977951 228.0 
110.054741 122.0 
110.081566 188.0 
110.37928 66.0 
110.578117 296.0 
110.636047 271.0 
110.830437 89.0 
110.855873 180.0 
111.111366 342.0 
112.212311 388.0 
114.034698 221.0 
114.085831 322.0 
115.055061 3608.0 
115.368134 164.0 
115.967125 211.0 
115.993774 194.0 
116.056297 1869.0 
116.106087 181.0 
116.423271 254.0 
116.874283 219.0 
117.059326 4027.0 
117.500153 704.0 
117.598221 198.0 
118.029648 163.0 
118.066124 10791.0 
118.63755 124.0 
118.736786 192.0 
118.801979 301.0 
118.854774 127.0 
119.032364 179.0 
119.072517 2198.0 
119.11721 230.0 
119.134819 392.0 
119.414101 133.0 
119.642288 372.0 
120.015549 252.0 
120.054413 52.0 
120.076447 235.0 
120.243591 236.0 
120.508118 166.0 
121.049591 217.0 
121.197678 234.0 
121.385025 212.0 
121.438339 244.0 
122.112518 251.0 
122.301247 153.0 
122.334335 205.0 
122.586166 250.0 
122.781784 215.0 
123.059586 110.0 
123.326126 239.0 
123.687759 185.0 
124.015663 165.0 
124.184433 159.0 
124.35508 665.0 
124.454216 340.0 
124.588463 236.0 
125.048347 3401.0 
125.115234 200.0 
125.719925 147.0 
125.780457 82.0 
126.055466 280.0 
126.403099 61.0 
126.505203 63.0 
126.60331 105.0 
126.714767 308.0 
127.284393 242.0 
127.540253 119.0 
127.712944 233.0 
127.780678 191.0 
127.860184 196.0 
128.05162 4802.0 
128.334442 42.0 
128.442322 270.0 
128.926514 242.0 
129.016357 485.0 
129.058151 4843.0 
129.47644 71.0 
129.569077 352.0 
129.807068 292.0 
130.041473 958.0 
130.065308 2329.0 
130.574066 92.0 
130.784912 88.0 
131.044052 174.0 
131.075409 436.0 
131.107468 247.0 
131.460327 171.0 
132.043045 90.0 
132.59935 249.0 
133.053833 408.0 
134.570145 281.0 
134.596298 160.0 
134.756302 220.0 
134.875885 304.0 
135.053528 142.0 
135.696732 151.0 
135.742844 276.0 
135.807938 187.0 
136.050751 385.0 
136.90564 200.0 
137.183517 239.0 
137.199997 309.0 
137.287277 202.0 
137.311493 270.0 
137.580612 24.0 
137.791992 175.0 
137.915741 483.0 
138.184891 193.0 
138.280212 279.0 
138.484299 172.0 
139.305161 288.0 
139.78508 150.0 
139.884628 282.0 
140.050476 882.0 
140.582657 248.0 
140.616928 343.0 
141.056747 1465.0 
141.999283 97.0 
142.035263 440.0 
142.06575 12130.0 
142.370972 38.0 
142.762512 68.0 
142.835251 257.0 
143.072601 17850.0 
143.124969 257.0 
143.268875 78.0 
143.671783 58.0 
143.700424 96.0 
143.881378 162.0 
143.968796 193.0 
144.015427 1010.0 
144.080307 109066.0 
144.115829 123.0 
144.166611 271.0 
144.236313 82.0 
144.27742 259.0 
144.446426 82.0 
144.546249 186.0 
144.623138 47.0 
144.674225 43.0 
144.743958 216.0 
144.922501 352.0 
145.030975 90.0 
145.072372 11669.0 
145.332596 83.0 
145.359161 124.0 
145.555817 303.0 
145.856369 252.0 
146.060822 1547.0 
146.181534 69.0 
146.252686 95.0 
146.316528 276.0 
146.353149 158.0 
146.527725 34.0 
146.56987 35.0 
147.22847 22.0 
147.293167 139.0 
147.936157 80.0 
148.299026 192.0 
148.332565 343.0 
148.537872 196.0 
149.336731 92.0 
149.425781 230.0 
149.544647 329.0 
150.720322 101.0 
151.06221 320.0 
151.162155 359.0 
152.023224 65.0 
152.046066 217.0 
152.424057 260.0 
152.998703 69.0 
153.042557 822.0 
153.142578 141.0 
153.268082 134.0 
153.316574 24.0 
153.47699 32.0 
153.589127 189.0 
153.797958 165.0 
153.951279 203.0 
154.023224 167.0 
154.062714 1895.0 
154.310974 104.0 
154.358612 87.0 
154.48999 156.0 
154.747498 147.0 
154.88591 170.0 
155.013962 110.0 
155.061295 75006.0 
155.136963 41.0 
155.181366 475.0 
155.247391 75.0 
155.328522 172.0 
155.400818 126.0 
155.453171 50.0 
155.507278 82.0 
155.594574 20.0 
155.751801 293.0 
156.03093 324.0 
156.064224 6594.0 
156.149582 137.0 
156.334244 242.0 
156.655472 80.0 
156.806503 18.0 
156.90094 78.0 
157.053665 1785.0 
157.103317 20.0 
157.262161 20.0 
157.377731 56.0 
157.466644 143.0 
157.564484 149.0 
157.60173 318.0 
157.811264 159.0 
157.850479 115.0 
158.062515 480.0 
158.377182 59.0 
158.727142 61.0 
158.985916 257.0 
159.056091 234.0 
159.774139 226.0 
159.917648 242.0 
160.034851 234.0 
160.056824 115.0 
160.076218 355.0 
160.164902 272.0 
160.190369 66.0 
160.543854 209.0 
160.900681 103.0 
160.994461 156.0 
161.03891 188.0 
161.259384 250.0 
161.403 237.0 
161.595139 408.0 
161.708664 91.0 
161.746536 218.0 
161.837814 213.0 
162.000809 187.0 
162.546463 102.0 
163.771408 208.0 
164.107483 224.0 
164.134583 265.0 
164.347534 260.0 
164.548553 116.0 
165.505981 138.0 
165.65918 25.0 
166.326675 289.0 
166.388596 320.0 
166.445496 321.0 
166.723465 52.0 
166.874908 191.0 
167.05867 275.0 
167.165878 108.0 
167.382904 104.0 
167.557831 135.0 
167.63028 248.0 
167.868057 361.0 
167.931305 195.0 
167.990341 230.0 
168.069794 5158.0 
168.14032 299.0 
168.21489 165.0 
168.249908 400.0 
168.321487 98.0 
168.363739 224.0 
168.385895 78.0 
168.445816 203.0 
168.46373 347.0 
168.488068 287.0 
168.547348 21.0 
168.612518 150.0 
168.645752 283.0 
168.688995 270.0 
168.873489 295.0 
168.91983 573.0 
168.988098 826.0 
169.076828 633744.0 
169.170609 699.0 
169.221268 500.0 
169.266708 509.0 
169.283981 440.0 
169.356033 506.0 
169.38739 363.0 
169.45401 340.0 
169.494812 149.0 
169.518204 423.0 
169.573624 636.0 
169.606308 311.0 
169.63327 383.0 
169.653519 295.0 
169.688248 188.0 
169.72345 88.0 
169.742691 213.0 
169.783081 292.0 
169.807449 107.0 
169.852371 627.0 
169.917313 697.0 
169.937714 705.0 
170.000305 1438.0 
170.084671 1490063.0 
170.144455 135.0 
170.166092 252.0 
170.225113 302.0 
170.255936 967.0 
170.278488 284.0 
170.30896 458.0 
170.35495 187.0 
170.413315 469.0 
170.452988 891.0 
170.514145 225.0 
170.541046 152.0 
170.565323 153.0 
170.594635 226.0 
170.639038 72.0 
170.661026 61.0 
170.73172 400.0 
170.790298 470.0 
170.87764 65.0 
170.905487 90.0 
170.959869 171.0 
170.97879 65.0 
171.001266 49.0 
171.088135 151673.0 
171.145737 125.0 
171.170853 170.0 
171.202942 342.0 
171.23056 170.0 
171.257355 461.0 
171.294724 251.0 
171.325821 506.0 
171.402115 164.0 
171.423462 204.0 
171.459915 341.0 
171.491409 210.0 
171.544937 535.0 
171.604156 18.0 
171.63623 176.0 
171.659668 86.0 
171.683777 222.0 
171.804932 78.0 
171.850006 78.0 
171.890961 186.0 
171.922211 73.0 
171.998474 245.0 
172.031342 96.0 
172.078552 1839.0 
172.10553 254.0 
172.130249 204.0 
172.166229 351.0 
172.194092 383.0 
172.257568 585.0 
172.287766 375.0 
172.344559 590.0 
172.37735 572.0 
172.414093 814.0 
172.446686 266.0 
172.461426 236.0 
172.488388 526.0 
172.514328 357.0 
172.546677 398.0 
172.5952 240.0 
172.641525 185.0 
172.69368 244.0 
172.728622 62.0 
172.769272 64.0 
172.804779 30.0 
172.850281 123.0 
173.111435 78.0 
173.128906 97.0 
173.162201 32.0 
173.180374 158.0 
173.272049 71.0 
173.311401 115.0 
173.340683 35.0 
173.375397 19.0 
173.411758 28.0 
173.466125 80.0 
173.485031 72.0 
173.538742 157.0 
173.583572 102.0 
173.615341 68.0 
173.648468 94.0 
174.049652 49.0 
174.085327 131.0 
174.113373 289.0 
174.637329 78.0 
175.063873 504.0 
175.169525 51.0 
175.528625 92.0 
175.953445 135.0 
176.017548 147.0 
176.059586 1331.0 
176.431152 66.0 
176.552216 155.0 
176.741989 19.0 
176.864075 101.0 
176.945221 67.0 
177.478912 65.0 
177.603851 71.0 
177.922409 87.0 
177.968246 71.0 
177.985611 48.0 
178.086243 87.0 
178.244644 21.0 
178.41127 220.0 
178.439224 74.0 
178.485184 133.0 
178.560959 24.0 
178.76236 29.0 
178.898422 115.0 
178.968933 107.0 
178.992523 239.0 
179.064529 366.0 
179.133362 120.0 
179.176071 57.0 
179.234604 42.0 
179.338165 64.0 
179.419662 57.0 
179.441956 41.0 
179.689468 35.0 
179.734619 198.0 
179.792282 63.0 
179.918869 51.0 
180.046494 335.0 
180.187561 100.0 
180.315201 61.0 
180.377335 66.0 
181.020676 60.0 
181.07547 3912.0 
181.206299 27.0 
181.539169 74.0 
181.565948 212.0 
181.58931 87.0 
181.633179 194.0 
182.050751 84.0 
182.08313 1318.0 
182.140671 70.0 
182.368713 74.0 
182.442505 36.0 
182.517639 52.0 
182.635544 124.0 
182.667297 47.0 
182.688766 327.0 
182.74086 207.0 
182.784729 24.0 
182.869034 63.0 
182.902283 69.0 
182.93541 91.0 
183.06012 628.0 
183.092636 1247.0 
183.172745 138.0 
183.302017 82.0 
183.520035 25.0 
183.570984 168.0 
183.622513 36.0 
183.689453 206.0 
183.749161 28.0 
183.800446 70.0 
183.889999 52.0 
184.05954 318.0 
184.100479 325.0 
184.14592 239.0 
184.544312 74.0 
184.572006 43.0 
185.069168 136.0 
185.109543 2841.0 
185.542572 65.0 
185.964066 133.0 
186.104095 203.0 
186.625153 176.0 
187.00174 120.0 
187.217575 58.0 
187.451828 230.0 
187.572433 185.0 
187.635468 97.0 
188.057297 309.0 
188.273056 121.0 
188.429825 98.0 
188.956146 142.0 
189.055954 75.0 
189.414536 139.0 
189.565598 365.0 
189.854218 66.0 
190.089325 60.0 
190.514191 222.0 
190.698273 237.0 
191.852951 387.0 
191.882278 211.0 
192.386566 157.0 
193.528809 332.0 
194.082886 50.0 
194.602951 155.0 
194.692276 238.0 
195.094482 53.0 
196.158325 97.0 
196.323547 155.0 
196.488785 110.0 
196.736893 102.0 
197.073395 4177.0 
197.162338 18.0 
197.227448 31.0 
197.457108 201.0 
197.53334 166.0 
197.696121 79.0 
197.768372 411.0 
197.836456 365.0 
197.928787 185.0 
197.962189 257.0 
197.998032 895.0 
198.079758 571915.0 
198.127487 112.0 
198.150787 200.0 
198.177231 286.0 
198.207535 118.0 
198.286591 275.0 
198.355881 203.0 
198.394455 115.0 
198.44252 63.0 
198.464798 270.0 
198.632446 235.0 
198.683029 166.0 
198.721069 44.0 
198.754059 157.0 
198.83107 101.0 
198.889755 113.0 
198.976913 169.0 
199.082733 47440.0 
199.123703 160.0 
199.217484 150.0 
199.324417 123.0 
199.605453 50.0 
199.714661 52.0 
199.753998 38.0 
199.856888 163.0 
199.985336 89.0 
200.006577 43.0 
200.094086 189.0 
200.176224 286.0 
200.331436 126.0 
200.357056 148.0 
200.383301 99.0 
200.445435 245.0 
200.511108 127.0 
200.538406 374.0 
200.609177 328.0 
200.687912 339.0 
200.719528 225.0 
200.772964 81.0 
200.810776 153.0 
200.919052 45.0 
201.067642 128.0 
201.312988 39.0 
201.338303 66.0 
201.627289 164.0 
201.673462 91.0 
202.073593 416.0 
202.111053 134.0 
202.636429 173.0 
202.718628 245.0 
203.297272 108.0 
204.047974 335.0 
204.264465 260.0 
204.789993 192.0 
204.888962 165.0 
205.343674 202.0 
205.426605 51.0 
205.603195 74.0 
206.022675 118.0 
207.726715 96.0 
207.750931 43.0 
207.887558 144.0 
207.921555 71.0 
207.940201 55.0 
208.331268 135.0 
208.995514 119.0 
209.031189 48.0 
209.216461 188.0 
209.982224 47.0 
210.917633 66.0 
211.023026 239.0 
211.091492 179.0 
211.133896 262.0 
211.236313 149.0 
211.32518 158.0 
211.90538 70.0 
211.94368 26.0 
212.013519 76.0 
212.06366 344.0 
212.084961 386.0 
212.12529 324.0 
212.162094 154.0 
212.205399 210.0 
212.228943 215.0 
212.285904 54.0 
212.335938 150.0 
212.388733 34.0 
212.508774 233.0 
212.546982 447.0 
212.616409 261.0 
212.80217 271.0 
212.865051 384.0 
212.897598 82.0 
212.935165 213.0 
212.97937 1004.0 
213.103317 773863.0 
213.168533 78.0 
213.197891 215.0 
213.216187 203.0 
213.284714 450.0 
213.332916 300.0 
213.364807 259.0 
213.405365 19.0 
213.435776 71.0 
213.457382 150.0 
213.481766 58.0 
213.519028 89.0 
213.543228 67.0 
213.57074 264.0 
213.603455 252.0 
213.64621 332.0 
213.693893 84.0 
213.730637 299.0 
213.848618 125.0 
213.915649 233.0 
214.048874 524.0 
214.106155 54641.0 
214.260651 64.0 
214.297333 74.0 
214.547287 96.0 
214.588913 66.0 
214.716599 45.0 
215.014114 133.0 
215.115768 336.0 
215.181503 76.0 
215.206299 262.0 
215.2397 52.0 
215.267426 105.0 
215.303589 46.0 
215.366364 133.0 
215.468826 160.0 
215.520309 274.0 
215.56662 204.0 
215.620926 318.0 
215.668884 204.0 
215.73819 302.0 
215.806808 267.0 
215.85376 281.0 
215.887558 80.0 
215.950989 152.0 
216.002975 230.0 
216.130493 28.0 
216.449265 77.0 
216.883713 119.0 
217.020065 119.0 
217.178299 118.0 
217.769379 60.0 
217.84671 41.0 
219.237762 131.0 
220.234467 86.0 
221.762787 44.0 
221.873978 80.0 
223.035477 89.0 
223.216064 112.0 
223.27684 124.0 
223.544052 223.0 
223.617996 67.0 
223.788391 69.0 
224.379059 27.0 
224.668716 84.0 
225.431122 96.0 
226.052307 30.0 
226.179764 19.0 
226.670349 25.0 
226.973984 39.0 
227.692169 69.0 
228.342987 71.0 
228.833038 68.0 
228.968826 75.0 
229.556061 217.0 
229.662384 68.0 
229.757935 51.0 
231.37291 63.0 
232.463699 130.0 
235.568695 28.0 
266.283356 54.0 
287.795197 24.0 
324.07193 71.0 
357.366333 46.0 
384.625458 326.0 
428.670319 70.0 
450.346008 64.0 
492.641968 32.0 
494.575043 158.0 
598.827515 91.0 
601.237061 65.0 
734.616333 74.0 
790.27417 57.0 
801.631836 97.0 
833.880859 26.0 
923.154846 101.0 
970.275757 34.0 
1044.470093 36.0 
1048.282593 95.0 
1106.40979 18.0 
1220.817139 209.0 
1300.100586 88.0 
1305.897217 138.0 
1381.330444 25.0 
1410.049438 134.0 
1419.489136 134.0 
1472.604736 220.0 
1477.90686 62.0 
1501.696289 148.0 
1503.973389 185.0 
1515.239502 91.0 
1520.06665 234.0 
1558.081421 313.0 
1577.41272 193.0 
1577.621582 61.0 
1578.131104 200.0 
1615.846558 228.0 
1622.81311 84.0 
1641.181641 158.0 
1657.91394 232.0 
1679.610962 313.0 
1691.985718 185.0 
1712.161865 81.0 
1728.382324 166.0 
1740.975464 177.0 
1744.825195 177.0 
1752.183472 204.0 
1769.708252 239.0 
1776.921509 255.0 
1802.125122 271.0 
1811.147583 150.0 
1824.313721 58.0 
1830.747803 142.0 
1834.437012 178.0 
1839.823364 249.0 
1845.233154 319.0 
1849.834961 274.0 
1887.313232 296.0 
1912.29126 251.0 
1924.342529 154.0 
1933.790527 161.0 
1934.383789 128.0 
1934.569946 210.0 
1937.040649 307.0 
1938.09375 167.0 
1941.372681 153.0 
1942.517334 270.0 
1949.449341 39.0 
1957.524292 174.0 
1964.8125 182.0 
1973.631836 185.0 
1982.569702 217.0 
1992.338745 171.0 
1994.441406 170.0 
2002.12854 279.0 
END IONS

BEGIN IONS
TITLE=Scan Number: 364
PEPMASS=271.09601
CHARGE=1+
MSLEVEL=2
FILENAME=A10_GA10_01_2908.mzXML
INSTRUMENT=ion trap
SCANS=364
SMILES=COC1=CC2=C(C(=O)C[C@@H](O2)C3=CC=CC=C3)C(O)=C1
INCHIKEY=ORJDDOBAOGKRJV-CQSZACIVSA-N
71.047783 198.0 
72.055626 201.0 
73.409302 340.0 
73.891991 370.0 
76.341919 155.0 
77.038734 1252.0 
77.543137 332.0 
78.04464 160.0 
78.328171 409.0 
78.348167 124.0 
79.019096 1787.0 
79.055588 4945.0 
79.126335 62.0 
80.025497 522.0 
80.058746 297.0 
80.549965 169.0 
81.035164 900.0 
81.203369 180.0 
82.103973 149.0 
83.011688 230.0 
83.051994 2340.0 
83.341637 236.0 
83.820206 263.0 
84.017242 218.0 
84.069756 73.0 
87.044052 202.0 
88.288956 337.0 
89.515984 292.0 
90.487038 70.0 
91.055008 5299.0 
91.413963 212.0 
92.056221 157.0 
92.998955 397.0 
93.036568 920.0 
94.043831 607.0 
94.654678 173.0 
95.01371 376.0 
95.049522 4540.0 
95.615974 297.0 
95.816063 222.0 
96.021141 3664.0 
96.050919 70.0 
96.265747 198.0 
97.018417 176.0 
97.771568 258.0 
98.080956 279.0 
99.044403 1261.0 
99.562492 118.0 
99.69413 126.0 
100.048203 143.0 
100.111954 106.0 
101.02623 318.0 
101.124275 289.0 
101.577026 146.0 
102.043419 159.0 
102.980438 243.0 
103.054955 86078.0 
103.113464 56.0 
103.152542 219.0 
103.209885 137.0 
103.411781 288.0 
103.643967 114.0 
104.058289 7908.0 
104.292122 89.0 
104.878052 136.0 
105.045113 12375.0 
106.047394 560.0 
106.074936 243.0 
107.013397 2289.0 
107.051567 2641.0 
108.018349 1024.0 
109.028488 786.0 
109.067131 956.0 
109.671333 152.0 
110.000107 157.0 
110.076439 183.0 
110.098534 145.0 
110.845673 193.0 
111.044312 20121.0 
111.217064 119.0 
111.269424 52.0 
112.048218 1228.0 
113.05864 127.0 
113.10247 137.0 
115.054337 671.0 
115.747772 213.0 
116.098122 84.0 
117.038559 231.0 
117.065056 242.0 
118.037102 140.0 
121.039703 203.0 
123.042648 118.0 
123.992218 275.0 
124.016876 6716.0 
124.65049 139.0 
125.022591 2473.0 
126.02433 399.0 
126.253059 272.0 
126.567574 184.0 
127.000824 97.0 
127.054222 701.0 
127.307114 288.0 
129.023651 259.0 
129.045471 198.0 
129.068649 522.0 
130.525833 115.0 
130.656265 349.0 
130.919281 281.0 
130.94194 302.0 
131.000107 297.0 
131.049774 80086.0 
131.110687 53.0 
131.12851 193.0 
131.247528 94.0 
131.787048 74.0 
131.827408 113.0 
132.054916 6540.0 
132.741287 82.0 
133.00354 144.0 
133.105789 99.0 
134.001755 201.0 
135.008606 1337.0 
136.011673 392.0 
137.026169 394.0 
137.061035 3853.0 
137.738113 97.0 
138.057022 356.0 
139.016022 315.0 
139.039032 5094.0 
140.045074 373.0 
140.713074 91.0 
141.020828 394.0 
141.057571 1005.0 
142.500229 69.0 
142.807877 53.0 
143.084351 179.0 
145.020859 451.0 
145.071945 275.0 
145.843048 66.0 
146.071426 162.0 
146.237625 202.0 
147.044205 172.0 
147.160645 71.0 
148.602478 190.0 
149.023651 153.0 
149.06189 199.0 
149.731125 87.0 
150.032166 278.0 
151.038025 865.0 
151.107819 68.0 
152.012039 4817.0 
153.015793 300.0 
153.069962 1602.0 
154.026108 133.0 
154.07991 819.0 
155.033966 1274.0 
155.058334 2736.0 
155.08902 202.0 
155.210861 109.0 
156.009964 356.0 
156.052979 377.0 
156.823029 57.0 
157.04834 402.0 
158.039322 541.0 
158.070328 144.0 
161.958847 131.0 
162.031509 152.0 
163.099243 111.0 
163.139053 268.0 
164.062408 674.0 
164.137573 181.0 
165.017624 820.0 
165.057358 5769.0 
165.164749 74.0 
165.671219 90.0 
165.836929 220.0 
165.865082 79.0 
166.023102 125.0 
166.075623 625.0 
166.275772 99.0 
166.718155 171.0 
166.742569 200.0 
166.780746 56.0 
166.934891 215.0 
167.034607 295068.0 
167.078064 59.0 
167.096436 90.0 
167.143631 192.0 
167.235321 60.0 
167.25679 278.0 
167.291351 160.0 
167.322098 173.0 
167.386353 142.0 
167.653351 82.0 
167.802643 136.0 
167.833511 65.0 
168.037354 14116.0 
168.283463 131.0 
168.320343 158.0 
168.505035 125.0 
168.576279 104.0 
168.842987 74.0 
169.046494 667.0 
169.099091 108.0 
169.249435 123.0 
169.342346 282.0 
169.372849 266.0 
169.413101 125.0 
169.434174 124.0 
169.453125 151.0 
169.64238 59.0 
169.68248 81.0 
170.85704 209.0 
173.060318 5242.0 
174.046814 162.0 
175.456192 205.0 
176.062073 582.0 
176.359985 102.0 
177.02063 82.0 
177.68692 107.0 
178.080627 276.0 
178.887543 148.0 
178.919067 228.0 
179.032349 186.0 
179.059128 386.0 
179.086319 158.0 
180.015381 158.0 
180.038971 425.0 
180.242279 51.0 
180.469025 130.0 
180.624237 118.0 
181.069794 986.0 
181.180786 83.0 
181.832275 92.0 
182.071899 1345.0 
182.190002 104.0 
183.082443 878.0 
184.079208 113.0 
184.446655 66.0 
185.044678 6514.0 
186.049149 656.0 
186.300461 111.0 
187.076218 646.0 
189.069092 148.0 
193.048874 2384.0 
194.059952 1006.0 
195.041931 143.0 
195.083801 577.0 
196.478485 143.0 
197.060684 112.0 
198.007233 231.0 
199.036621 188.0 
199.365906 139.0 
202.09993 272.0 
208.088135 203.0 
210.067169 798.0 
211.074646 635.0 
212.055939 197.0 
214.009781 202.0 
216.327255 104.0 
221.059921 189.0 
225.090363 1491.0 
227.074402 115.0 
227.112305 251.0 
229.086899 3519.0 
230.094696 284.0 
236.081772 150.0 
238.057831 322.0 
242.162521 290.0 
243.100647 948.0 
253.090698 1698.0 
269.355469 293.0 
270.101532 141.0 
270.699677 76.0 
270.76889 114.0 
270.811218 258.0 
270.980347 332.0 
271.097321 147030.0 
271.195465 151.0 
271.313446 67.0 
271.382141 129.0 
271.476562 146.0 
271.695557 76.0 
271.733459 59.0 
271.9534 92.0 
272.027161 192.0 
272.100739 14946.0 
272.805054 104.0 
273.009735 90.0 
273.088867 129.0 
273.7565 86.0 
273.811371 101.0 
273.836609 85.0 
273.949829 102.0 
274.060425 214.0 
274.690643 101.0 
275.031281 180.0 
275.110504 122.0 
282.305389 249.0 
290.105743 61.0 
363.07843 291.0 
445.98938 121.0 
590.377136 136.0 
710.391052 95.0 
1193.0271 117.0 
1308.216797 82.0 
1380.999023 167.0 
1509.33606 341.0 
1551.437256 124.0 
1636.930054 325.0 
1704.842407 138.0 
1705.047852 221.0 
1712.82251 99.0 
1753.060913 221.0 
1766.274048 162.0 
1798.409546 241.0 
1806.209351 56.0 
1808.119141 204.0 
1809.363525 212.0 
1917.923462 232.0 
1922.54126 131.0 
1957.711914 290.0 
1972.599731 126.0 
1982.633667 118.0 
END IONS

BEGIN IONS
TITLE=Scan Number: 367
PEPMASS=401.12299
CHARGE=1+
MSLEVEL=2
FILENAME=E12_RE12_01_2768.mzXML
INSTRUMENT=ion trap
SCANS=367
SMILES=COC1=CC(=CC(OC)=C1O)C2C3C(COC3=O)CC4=C2C=C5OCOC5=C4O
INCHIKEY=JGGWNGRBXJWAOC-UHFFFAOYSA-N
71.012581 169.0 
73.858826 184.0 
87.130898 259.0 
91.037453 216.0 
91.052971 841.0 
91.319794 269.0 
91.586449 197.0 
99.348351 174.0 
102.176537 238.0 
103.052673 513.0 
104.014259 231.0 
105.069633 2908.0 
106.612282 230.0 
108.275993 273.0 
109.102104 146.0 
115.055374 2467.0 
115.904236 233.0 
116.057678 907.0 
117.069801 4070.0 
117.101677 106.0 
118.069984 630.0 
119.051857 330.0 
119.236771 82.0 
122.026741 78.0 
123.043953 169.0 
124.052879 135.0 
126.223022 134.0 
127.055511 321.0 
129.068527 1095.0 
131.048431 6382.0 
132.050949 699.0 
133.045044 209.0 
134.073837 135.0 
142.894806 221.0 
143.050903 1238.0 
143.211349 171.0 
143.559174 106.0 
144.824661 231.0 
145.008698 178.0 
145.065353 25871.0 
145.096786 354.0 
146.067795 2884.0 
146.914932 181.0 
147.043762 681.0 
147.077225 445.0 
147.117371 192.0 
147.487701 153.0 
148.048599 152.0 
149.062912 150.0 
155.060715 2795.0 
156.0439 186.0 
156.063278 580.0 
157.062027 593.0 
159.045502 4727.0 
160.050522 947.0 
161.061935 1503.0 
168.069885 266.0 
168.680695 160.0 
171.021378 203.0 
171.043442 824.0 
172.906418 144.0 
172.980347 124.0 
173.015411 160.0 
173.060501 16418.0 
173.266937 214.0 
174.064346 2819.0 
175.040985 2405.0 
175.072983 240.0 
176.04213 606.0 
181.049652 154.0 
184.07222 137.0 
188.046097 91.0 
188.261215 122.0 
188.452438 188.0 
188.529266 219.0 
188.735474 265.0 
188.793213 281.0 
189.006622 207.0 
189.054596 21581.0 
189.608673 192.0 
189.953491 213.0 
190.007996 85.0 
190.058868 1779.0 
191.068726 1739.0 
199.035416 605.0 
201.055923 4844.0 
201.950714 277.0 
202.0569 392.0 
203.032455 129.0 
203.070618 11856.0 
203.50502 122.0 
204.073441 1116.0 
204.49147 94.0 
212.848526 80.0 
217.052109 467.0 
229.042755 347.0 
231.612595 186.0 
247.061646 22386.0 
248.063522 2585.0 
249.155914 285.0 
263.066345 138.0 
305.078888 195.0 
338.106659 233.0 
341.100769 107.0 
350.882233 153.0 
402.108551 150.0 
402.246887 172.0 
1200.76416 86.0 
1615.415039 204.0 
END IONS

BEGIN IONS
TITLE=Scan Number: 368
PEPMASS=418.14999
CHARGE=1+
MSLEVEL=2
FILENAME=E12_RE12_01_2768.mzXML
INSTRUMENT=ion trap
SCANS=368
SMILES=COC1=CC(=CC(OC)=C1O)C2C3C(COC3=O)CC4=C2C=C5OCOC5=C4O
INCHIKEY=JGGWNGRBXJWAOC-UHFFFAOYSA-N
74.175156 127.0 
82.846924 269.0 
83.953011 315.0 
91.059471 442.0 
95.087265 237.0 
97.010536 103.0 
105.042847 262.0 
105.070786 1865.0 
115.053574 2185.0 
115.887665 85.0 
116.057426 215.0 
117.071487 3055.0 
118.074898 395.0 
118.931122 320.0 
119.051117 243.0 
119.085144 378.0 
120.061676 256.0 
122.036385 218.0 
127.051979 729.0 
129.067841 1268.0 
130.038284 377.0 
130.072952 344.0 
131.048691 4827.0 
131.087677 152.0 
132.053558 497.0 
133.065781 1185.0 
140.135635 289.0 
143.051178 1222.0 
144.052109 451.0 
144.888565 98.0 
145.029205 572.0 
145.065659 25909.0 
145.161209 109.0 
145.304138 178.0 
145.639923 206.0 
145.850769 213.0 
146.068832 2048.0 
146.982925 106.0 
147.049103 970.0 
147.08165 812.0 
151.032242 377.0 
152.016998 155.0 
152.447983 149.0 
153.982925 147.0 
154.862473 98.0 
155.057999 2247.0 
156.059814 216.0 
157.028687 171.0 
157.064804 404.0 
158.066559 229.0 
158.544662 319.0 
159.044342 6861.0 
160.049774 528.0 
161.041794 258.0 
161.062637 849.0 
161.489029 94.0 
162.060394 301.0 
162.192627 87.0 
164.072266 179.0 
166.639145 179.0 
171.049057 1418.0 
172.846573 183.0 
173.060867 23662.0 
174.0634 2050.0 
174.153519 204.0 
175.039337 1663.0 
175.074722 413.0 
176.047226 181.0 
181.049606 94.0 
182.140152 237.0 
185.055893 322.0 
188.047592 1377.0 
188.572464 143.0 
188.803574 171.0 
188.974136 122.0 
189.055206 19529.0 
189.136047 295.0 
190.009277 196.0 
190.057144 1945.0 
191.034119 211.0 
191.073776 1196.0 
199.041031 635.0 
201.054337 4110.0 
202.054871 543.0 
203.072296 16305.0 
203.293716 91.0 
204.069672 1364.0 
205.052551 361.0 
205.142288 122.0 
216.091324 134.0 
218.057556 139.0 
219.02562 177.0 
219.063202 641.0 
223.074692 143.0 
229.0513 1343.0 
230.05481 350.0 
234.078964 252.0 
239.075043 146.0 
240.1642 111.0 
246.820053 201.0 
247.061859 44954.0 
247.179123 122.0 
248.06575 4645.0 
248.404495 107.0 
285.566284 249.0 
298.049225 145.0 
314.043304 179.0 
330.114685 122.0 
332.072113 185.0 
376.064728 222.0 
383.127716 111.0 
401.130554 180.0 
418.262421 159.0 
419.231659 199.0 
434.070526 323.0 
1651.813843 267.0 
1710.426025 262.0 
END IONS

BEGIN IONS
TITLE=Scan Number: 369
PEPMASS=444.16599
CHARGE=1+
MSLEVEL=2
FILENAME=E12_RE12_01_2768.mzXML
INSTRUMENT=ion trap
SCANS=369
SMILES=CC1NC2N(C1=O)C3=CC=CC=C3C24CC5N6C(=O)C7=C(C=CC=C7)N=C6C(O4)N(C)C5=O
INCHIKEY=BOZGEGDMHAOPIQ-UHFFFAOYSA-N
70.379547 270.0 
70.4123 173.0 
71.773964 102.0 
72.741966 77.0 
73.348969 123.0 
73.660431 259.0 
74.261971 163.0 
74.583122 266.0 
74.887306 246.0 
75.06414 102.0 
75.273537 124.0 
75.47686 300.0 
76.965515 241.0 
77.203598 184.0 
77.292572 336.0 
77.750549 344.0 
78.033051 187.0 
78.079308 210.0 
78.253876 274.0 
79.710884 150.0 
80.050758 249.0 
81.54274 255.0 
81.713211 293.0 
81.760994 196.0 
82.054985 132.0 
82.672852 204.0 
83.160477 308.0 
83.599457 215.0 
84.041962 232.0 
84.791512 294.0 
84.982285 150.0 
85.103241 174.0 
85.386719 254.0 
85.519325 260.0 
85.541939 277.0 
85.55645 230.0 
86.596687 215.0 
87.284592 122.0 
87.358292 147.0 
87.782242 231.0 
88.024887 100.0 
88.195137 264.0 
88.410683 174.0 
88.487556 202.0 
88.784767 309.0 
89.038429 160.0 
89.050407 199.0 
89.936264 249.0 
90.359398 371.0 
90.860161 187.0 
92.049164 1033.0 
92.33596 215.0 
92.743629 247.0 
92.784157 191.0 
92.807907 123.0 
93.593735 221.0 
93.687019 213.0 
94.493507 265.0 
95.042542 150.0 
95.05899 152.0 
95.334724 193.0 
95.385841 162.0 
95.400673 221.0 
96.597801 123.0 
98.245461 213.0 
99.003197 304.0 
100.040794 824.0 
100.133179 144.0 
100.876724 242.0 
101.384315 58.0 
101.828712 222.0 
101.877968 307.0 
103.527328 209.0 
103.667992 110.0 
103.697197 188.0 
103.944275 155.0 
104.049622 2842.0 
105.046616 747.0 
105.071259 220.0 
105.238312 204.0 
105.540718 303.0 
106.001968 132.0 
106.066978 128.0 
106.337387 213.0 
107.754395 333.0 
107.892136 108.0 
108.674736 236.0 
108.720909 379.0 
109.009239 263.0 
109.391884 211.0 
110.142311 209.0 
110.458687 157.0 
110.950012 163.0 
111.012695 183.0 
111.169647 83.0 
112.025314 62.0 
112.78894 116.0 
112.931686 274.0 
113.910172 211.0 
114.008041 254.0 
114.398239 191.0 
114.45636 229.0 
114.63752 231.0 
114.74382 246.0 
115.056122 364.0 
115.445396 250.0 
115.844727 166.0 
116.016441 210.0 
116.049034 1955.0 
116.624939 191.0 
117.017464 257.0 
117.057922 2630.0 
117.702972 47.0 
117.981506 359.0 
118.010735 154.0 
118.064354 3044.0 
118.547836 136.0 
119.065567 448.0 
119.12336 247.0 
119.482971 263.0 
120.045525 11581.0 
120.117882 41.0 
120.79612 218.0 
120.859291 181.0 
121.028618 199.0 
121.047569 596.0 
123.3591 121.0 
123.396812 96.0 
123.523254 238.0 
123.569519 216.0 
123.649895 226.0 
124.194809 156.0 
124.429428 141.0 
124.689819 308.0 
124.88105 131.0 
125.037689 215.0 
125.625122 275.0 
126.409874 178.0 
127.543549 149.0 
127.991646 127.0 
128.050156 828.0 
128.063324 694.0 
128.25145 357.0 
128.794754 249.0 
128.931274 294.0 
129.045395 6982.0 
129.070572 4043.0 
129.31369 254.0 
129.831085 42.0 
129.990112 245.0 
130.008301 1124.0 
130.029694 35064.0 
130.065567 16285.0 
130.103134 41.0 
130.130859 56.0 
130.171188 148.0 
130.500458 236.0 
130.640503 342.0 
130.922531 149.0 
130.978745 252.0 
131.033401 2112.0 
131.065994 5068.0 
131.103973 283.0 
131.216217 60.0 
131.382263 156.0 
131.89975 155.0 
132.010193 356.0 
132.044449 11162.0 
132.071976 1093.0 
132.098724 161.0 
132.170151 95.0 
132.217087 188.0 
132.537964 135.0 
132.681381 234.0 
133.046829 994.0 
133.080414 390.0 
133.755661 189.0 
134.066788 254.0 
134.536942 164.0 
135.153519 194.0 
136.057281 200.0 
136.218475 197.0 
136.504196 120.0 
137.224518 246.0 
138.730469 129.0 
139.05928 258.0 
139.447433 164.0 
139.493423 161.0 
140.049988 1022.0 
140.690689 290.0 
140.934708 197.0 
140.994705 182.0 
141.053741 159.0 
141.072693 457.0 
141.439804 249.0 
142.06572 3470.0 
142.906265 264.0 
143.073792 6465.0 
143.17775 335.0 
143.311783 102.0 
143.558029 216.0 
143.642212 102.0 
143.730286 287.0 
143.751114 90.0 
144.045242 3412.0 
144.0811 22663.0 
144.180084 398.0 
144.652786 221.0 
144.751099 112.0 
144.900009 156.0 
145.041855 2285.0 
145.07814 7949.0 
145.332382 269.0 
145.492538 392.0 
146.02533 556.0 
146.058426 1629.0 
146.081909 1906.0 
146.397797 132.0 
146.550751 161.0 
146.589203 235.0 
146.79422 43.0 
146.956818 318.0 
147.056122 70466.0 
147.130493 220.0 
147.361374 119.0 
147.382812 112.0 
147.684143 234.0 
147.773117 178.0 
148.036804 681.0 
148.059357 7081.0 
148.580124 130.0 
149.061325 119.0 
149.112793 132.0 
149.341309 123.0 
149.507416 97.0 
149.558075 195.0 
149.926086 235.0 
149.985825 66.0 
150.069717 177.0 
150.476639 189.0 
151.199326 91.0 
152.525513 87.0 
153.046661 396.0 
153.124496 80.0 
153.429184 158.0 
153.733963 105.0 
153.854706 378.0 
153.990677 117.0 
154.066223 13835.0 
154.94841 125.0 
155.069397 8149.0 
155.181854 50.0 
155.367294 261.0 
155.396713 206.0 
155.479218 232.0 
155.522125 189.0 
155.806351 87.0 
156.081451 23790.0 
156.118942 68.0 
156.452896 91.0 
156.955612 305.0 
157.017807 173.0 
157.038956 246.0 
157.077408 11552.0 
157.308487 248.0 
157.369781 324.0 
157.407501 144.0 
158.06279 1860.0 
158.085281 18804.0 
158.37619 135.0 
158.927475 292.0 
158.991425 62.0 
159.056732 6264.0 
159.091934 3757.0 
159.149078 111.0 
159.206573 55.0 
159.312241 183.0 
159.904999 143.0 
159.953278 97.0 
160.039078 108.0 
160.07338 1451.0 
160.261719 258.0 
160.823151 154.0 
160.909302 77.0 
160.977615 51.0 
161.07193 11541.0 
161.21051 171.0 
161.234985 462.0 
161.410797 42.0 
161.584854 100.0 
161.893219 76.0 
162.059265 1511.0 
162.074219 1795.0 
163.058182 276.0 
163.090576 108.0 
163.298096 105.0 
164.150375 65.0 
164.843018 88.0 
164.872086 189.0 
165.164017 226.0 
166.035492 99.0 
166.065582 3304.0 
166.274948 135.0 
166.733475 146.0 
167.066055 8612.0 
167.12854 82.0 
167.175232 73.0 
167.445068 125.0 
167.85173 134.0 
167.887939 65.0 
167.927948 83.0 
168.031464 175.0 
168.080139 17710.0 
168.118958 83.0 
168.144012 334.0 
168.192764 103.0 
168.30069 131.0 
168.525116 132.0 
168.555695 103.0 
168.645096 114.0 
168.873764 160.0 
168.910751 405.0 
168.959274 108.0 
169.011353 922.0 
169.077164 169631.0 
169.173721 471.0 
169.215927 353.0 
169.264862 135.0 
169.292679 103.0 
169.333511 121.0 
169.375046 136.0 
169.43718 96.0 
169.611832 103.0 
169.86528 68.0 
170.081055 22180.0 
170.139877 78.0 
170.162552 145.0 
170.189056 160.0 
170.314056 288.0 
170.467606 109.0 
170.561996 101.0 
170.635086 191.0 
170.685684 198.0 
170.716156 171.0 
170.793945 176.0 
170.832779 450.0 
170.90596 301.0 
170.955521 79.0 
170.987427 254.0 
171.012741 1788.0 
171.056625 214490.0 
171.092972 134018.0 
171.129181 253.0 
171.159729 198.0 
171.187149 71.0 
171.245438 271.0 
171.302765 59.0 
171.327026 114.0 
171.34787 186.0 
171.397858 205.0 
171.450409 567.0 
171.480469 273.0 
171.504669 167.0 
171.896118 99.0 
171.99826 309.0 
172.059509 21538.0 
172.096283 15820.0 
172.157745 163.0 
172.441452 152.0 
172.563919 79.0 
172.583649 96.0 
172.782242 161.0 
172.97702 64.0 
173.008606 252.0 
173.071884 10213.0 
173.283783 91.0 
173.342529 66.0 
173.389816 473.0 
173.442413 226.0 
173.481552 380.0 
173.51088 147.0 
173.53157 268.0 
173.569244 203.0 
173.632599 238.0 
173.730927 134.0 
173.915695 73.0 
173.950516 130.0 
174.02449 74.0 
174.060471 215.0 
174.073212 207.0 
174.177155 97.0 
174.238251 192.0 
174.362778 234.0 
174.529526 110.0 
174.658173 66.0 
174.735641 42.0 
175.05162 4698.0 
175.120117 75.0 
175.370544 145.0 
176.049683 318.0 
177.064499 614.0 
177.269516 72.0 
178.104828 472.0 
178.303909 62.0 
178.524948 83.0 
179.040375 200.0 
179.064835 512.0 
179.42601 46.0 
179.641739 78.0 
180.071854 146.0 
180.142456 235.0 
180.18457 72.0 
180.287277 74.0 
180.737228 177.0 
180.845093 213.0 
181.076736 11743.0 
181.318954 72.0 
181.753891 127.0 
181.980133 72.0 
182.084595 7600.0 
182.138275 147.0 
182.211258 157.0 
182.632812 79.0 
182.954254 135.0 
182.984116 214.0 
183.019287 186.0 
183.057159 29032.0 
183.093216 131980.0 
183.180908 267.0 
183.215088 280.0 
183.236206 278.0 
183.265427 158.0 
183.30278 112.0 
183.346191 124.0 
183.370255 113.0 
183.43309 75.0 
183.499481 55.0 
183.563477 75.0 
183.652832 189.0 
183.718735 114.0 
183.834549 94.0 
183.860184 170.0 
184.061707 5583.0 
184.097107 25172.0 
184.175232 160.0 
184.36261 43.0 
184.786804 180.0 
184.875275 77.0 
184.922455 109.0 
184.966354 44.0 
185.029724 304.0 
185.070679 24422.0 
185.108414 36771.0 
185.178238 329.0 
185.467758 51.0 
185.513275 173.0 
185.527023 182.0 
185.607285 124.0 
185.701401 68.0 
185.891418 88.0 
185.987228 318.0 
186.078598 13720.0 
186.116272 1990.0 
186.345093 66.0 
186.409424 57.0 
186.808304 59.0 
186.940048 196.0 
187.086197 9364.0 
187.164658 73.0 
187.257553 265.0 
187.326859 107.0 
187.503876 57.0 
187.549286 83.0 
187.720276 127.0 
187.781097 157.0 
187.821823 112.0 
187.961807 231.0 
187.989777 583.0 
188.01886 145.0 
188.083603 83472.0 
188.443008 92.0 
188.550201 50.0 
188.605759 140.0 
188.734329 217.0 
188.971573 141.0 
189.084686 9471.0 
189.138199 60.0 
189.231247 281.0 
189.387161 72.0 
189.559128 54.0 
189.696045 100.0 
189.791382 76.0 
190.039383 232.0 
190.096024 2505.0 
190.293472 56.0 
190.348618 95.0 
190.434387 161.0 
190.679688 113.0 
190.839462 84.0 
190.976654 237.0 
191.10939 196.0 
191.135635 301.0 
191.522842 250.0 
192.482468 41.0 
193.077347 6329.0 
194.083725 896.0 
194.595551 80.0 
194.81752 50.0 
194.954544 278.0 
195.00882 119.0 
195.066895 1133.0 
195.092987 5333.0 
195.336411 145.0 
195.367569 159.0 
195.568222 182.0 
195.802124 280.0 
196.05751 314.0 
196.0896 2077.0 
196.141602 155.0 
197.059906 4205.0 
197.106079 114.0 
197.33223 145.0 
197.57309 78.0 
197.608292 64.0 
198.067108 2369.0 
198.108841 522.0 
198.178955 80.0 
198.201904 300.0 
198.238998 139.0 
198.380356 160.0 
198.449631 63.0 
198.48378 281.0 
198.524033 86.0 
198.553543 277.0 
198.607635 48.0 
198.636032 300.0 
198.853119 165.0 
198.893585 185.0 
198.951782 89.0 
198.979218 137.0 
199.051575 138924.0 
199.088211 88698.0 
199.156158 148.0 
199.23143 254.0 
199.282745 130.0 
199.326065 268.0 
199.359863 238.0 
199.483398 57.0 
199.629532 82.0 
199.65657 145.0 
199.803589 221.0 
199.927231 256.0 
199.971634 151.0 
199.995163 188.0 
200.055237 15089.0 
200.084961 33484.0 
200.131302 199.0 
200.200348 172.0 
200.358856 104.0 
200.443176 41.0 
200.620331 321.0 
201.0233 128.0 
201.064697 1773.0 
201.088074 2846.0 
201.239365 89.0 
201.347931 168.0 
201.420105 242.0 
201.452957 91.0 
201.541168 63.0 
201.620377 136.0 
201.645325 89.0 
201.69458 436.0 
201.728485 74.0 
201.750885 91.0 
201.829102 138.0 
202.09407 2055.0 
202.127228 283.0 
202.379181 164.0 
202.593262 188.0 
203.387909 103.0 
203.604065 266.0 
204.809265 213.0 
204.947266 160.0 
204.968582 296.0 
205.065247 808.0 
205.09996 185.0 
205.54483 115.0 
206.362106 59.0 
207.091461 156.0 
208.090942 324.0 
208.440903 54.0 
208.80838 267.0 
208.907135 335.0 
209.071609 8915.0 
209.377625 136.0 
209.668381 258.0 
209.73439 139.0 
209.895386 288.0 
210.018768 209.0 
210.077271 2275.0 
210.618256 145.0 
210.775406 116.0 
211.052551 2203.0 
211.087845 43065.0 
211.177231 319.0 
211.34079 82.0 
211.367645 178.0 
211.444153 47.0 
211.66571 94.0 
211.993286 349.0 
212.083725 64703.0 
212.244141 250.0 
212.314545 164.0 
212.521027 122.0 
212.567566 84.0 
212.896454 307.0 
213.054871 9593.0 
213.099884 13642.0 
213.164246 185.0 
213.300812 65.0 
213.362274 90.0 
213.575134 50.0 
213.653839 65.0 
213.798752 68.0 
213.884583 192.0 
214.065201 1998.0 
214.099686 32411.0 
214.247833 85.0 
214.661575 83.0 
214.868042 44.0 
215.064423 577.0 
215.1008 2893.0 
215.841446 99.0 
216.078201 1975.0 
216.174179 232.0 
216.20047 149.0 
216.351089 45.0 
216.690842 56.0 
216.802597 203.0 
216.840378 109.0 
216.891479 357.0 
217.06218 201.0 
218.09491 1052.0 
218.436066 257.0 
219.034164 109.0 
219.368515 176.0 
219.64328 102.0 
221.073624 299.0 
221.525116 83.0 
221.942413 63.0 
222.07338 523.0 
223.058014 172.0 
223.089157 1538.0 
223.818573 79.0 
224.081787 875.0 
224.20372 129.0 
224.809174 247.0 
225.025787 176.0 
225.082336 433.0 
225.457886 243.0 
225.685593 148.0 
226.036469 43.0 
226.099304 698.0 
226.136597 673.0 
226.520782 93.0 
226.843689 179.0 
227.046555 1740.0 
227.08757 323.0 
227.163803 192.0 
227.36499 252.0 
227.45752 209.0 
227.563889 775.0 
227.830521 178.0 
227.936066 234.0 
227.984955 197.0 
228.078659 142255.0 
228.127472 313.0 
228.21489 193.0 
228.356796 51.0 
228.386978 211.0 
228.507919 119.0 
228.57309 251.0 
228.636612 101.0 
228.703018 98.0 
228.726517 277.0 
228.799881 188.0 
228.845413 142.0 
228.874146 264.0 
228.908859 145.0 
229.098358 115430.0 
229.264069 100.0 
229.342606 134.0 
229.402634 238.0 
229.518127 170.0 
229.636566 92.0 
229.763382 61.0 
229.967651 127.0 
230.03389 73.0 
230.102158 10795.0 
230.342941 78.0 
230.417526 196.0 
230.584045 59.0 
230.675781 177.0 
230.863708 79.0 
230.958054 67.0 
231.024811 283.0 
231.100174 374.0 
231.664124 56.0 
231.700516 52.0 
231.794159 309.0 
231.910629 160.0 
232.085571 167.0 
233.743805 219.0 
234.085083 226.0 
235.078751 130.0 
235.501526 81.0 
235.531876 62.0 
235.896042 203.0 
236.080887 538.0 
237.063019 873.0 
237.470566 69.0 
237.803345 144.0 
237.965652 81.0 
238.042496 110.0 
238.068375 403.0 
238.834442 237.0 
238.879227 102.0 
239.029922 230.0 
239.082764 3380.0 
239.362686 250.0 
239.435028 164.0 
239.458176 146.0 
239.490768 86.0 
239.607956 166.0 
239.720367 176.0 
239.806076 255.0 
239.916504 209.0 
239.940811 292.0 
239.994339 1258.0 
240.078735 506804.0 
240.179321 253.0 
240.251144 54.0 
240.277222 256.0 
240.331711 256.0 
240.383545 51.0 
240.455994 254.0 
240.499069 108.0 
240.540253 202.0 
240.634201 162.0 
240.724533 166.0 
240.787521 54.0 
240.98082 460.0 
241.019806 582.0 
241.081955 57954.0 
241.180084 77.0 
241.338013 51.0 
241.407608 54.0 
241.473404 129.0 
241.532715 84.0 
241.56955 85.0 
241.621948 84.0 
241.712906 77.0 
241.771164 51.0 
241.850204 209.0 
242.090057 1243.0 
242.129745 1905.0 
242.218948 153.0 
242.245224 64.0 
242.358582 84.0 
242.428131 277.0 
242.638412 119.0 
242.737701 133.0 
242.774536 145.0 
242.861755 217.0 
242.905838 218.0 
242.940186 116.0 
243.017975 505.0 
243.132736 141.0 
243.259537 67.0 
243.603745 48.0 
243.724304 166.0 
243.851898 184.0 
244.070435 378.0 
244.219101 68.0 
244.82605 56.0 
246.093445 2578.0 
247.09346 169.0 
247.984848 130.0 
248.088074 628.0 
249.07872 281.0 
249.802002 62.0 
251.068649 180.0 
251.221603 63.0 
251.539841 107.0 
251.722061 61.0 
252.070633 116.0 
252.112015 882.0 
252.562057 41.0 
253.080826 398.0 
254.090973 965.0 
254.13118 1295.0 
255.071991 284.0 
255.093094 305.0 
255.129913 432.0 
256.0914 385.0 
256.17749 64.0 
256.604553 100.0 
256.699432 315.0 
256.87088 220.0 
256.956055 209.0 
257.000671 480.0 
257.093719 90792.0 
257.267151 85.0 
257.407501 87.0 
257.448639 63.0 
257.516296 42.0 
257.648407 110.0 
258.095306 15469.0 
258.161957 173.0 
259.096375 652.0 
259.418152 79.0 
259.5495 147.0 
259.621674 116.0 
259.847809 134.0 
259.997681 203.0 
260.040985 165.0 
260.105499 168.0 
260.630127 46.0 
260.959991 100.0 
264.210175 254.0 
265.076111 92.0 
265.113983 151.0 
265.524109 228.0 
266.051819 50.0 
266.09436 216.0 
266.522888 56.0 
267.083221 506.0 
267.699677 81.0 
268.084839 410.0 
269.05014 90.0 
270.127899 2171.0 
271.084412 1299.0 
272.080048 685.0 
273.099823 227.0 
273.627502 162.0 
274.094727 453.0 
277.064362 178.0 
279.099304 274.0 
280.113434 519.0 
280.889069 109.0 
281.049683 162.0 
281.100769 404.0 
281.142853 176.0 
282.08847 181.0 
283.073395 397.0 
283.099426 552.0 
284.0979 242.0 
285.090729 1728.0 
286.097809 3787.0 
287.108276 739.0 
287.138794 182.0 
288.054718 177.0 
288.116608 1047.0 
289.1203 356.0 
289.427185 197.0 
290.186066 166.0 
294.101532 81.0 
295.112396 198.0 
296.085968 615.0 
296.118378 878.0 
296.270599 246.0 
296.348724 163.0 
297.066711 168.0 
297.090271 353.0 
297.116028 665.0 
297.528259 42.0 
297.578156 216.0 
297.958862 96.0 
298.098389 16001.0 
298.636261 218.0 
298.728546 267.0 
298.951324 202.0 
299.105988 7188.0 
299.371277 60.0 
299.766632 100.0 
299.959229 176.0 
300.113403 4474.0 
301.114044 973.0 
301.308197 73.0 
302.128571 250.0 
305.847992 52.0 
307.113403 313.0 
307.714661 194.0 
309.082703 77.0 
309.120941 204.0 
309.37149 363.0 
310.099701 539.0 
311.096588 1426.0 
312.118317 2668.0 
313.116852 2041.0 
313.384644 116.0 
314.017273 141.0 
314.093994 3351.0 
314.146332 174.0 
314.490204 85.0 
314.889343 307.0 
315.087952 435.0 
315.134125 455.0 
315.922302 254.0 
316.108002 449.0 
316.770111 73.0 
317.138885 115.0 
317.480194 247.0 
321.679596 63.0 
322.11322 629.0 
322.824554 135.0 
323.106567 1134.0 
323.924042 130.0 
324.114502 6456.0 
324.972076 143.0 
325.112061 2700.0 
325.966644 95.0 
326.035309 142.0 
326.088318 519.0 
326.117584 1588.0 
326.752472 260.0 
327.048126 96.0 
327.12674 3175.0 
327.605957 96.0 
327.905792 176.0 
328.125946 1118.0 
328.585022 42.0 
329.027039 168.0 
329.080902 366.0 
329.141754 14891.0 
329.329376 92.0 
329.510803 290.0 
329.888916 75.0 
330.102631 400.0 
330.145691 1430.0 
330.656219 101.0 
331.886993 290.0 
332.151703 136.0 
335.079987 146.0 
335.417023 77.0 
337.114441 1528.0 
337.402954 54.0 
338.096802 425.0 
338.150482 174.0 
338.625305 180.0 
338.882812 179.0 
339.083496 417.0 
339.126312 6358.0 
339.237122 101.0 
339.320404 94.0 
339.561707 233.0 
340.090729 654.0 
340.130707 1651.0 
340.282623 143.0 
340.518311 204.0 
341.002777 193.0 
341.060699 236.0 
341.142303 18107.0 
341.739777 135.0 
342.10321 1150.0 
342.145355 2999.0 
342.597015 113.0 
343.123657 1176.0 
344.112885 628.0 
344.323761 52.0 
344.509735 201.0 
345.10791 267.0 
347.097076 109.0 
349.120178 724.0 
350.11438 129.0 
351.125885 155.0 
352.10141 360.0 
353.01239 91.0 
353.107086 1657.0 
354.106659 818.0 
354.172852 1572.0 
355.081299 948.0 
355.123169 9395.0 
355.188293 339.0 
355.271667 151.0 
356.074402 180.0 
356.122406 2315.0 
357.151062 261.0 
358.08551 157.0 
358.431732 164.0 
359.145569 52.0 
359.174225 74.0 
362.168518 210.0 
365.367371 42.0 
366.107239 268.0 
367.028015 88.0 
367.123016 4689.0 
368.124756 1636.0 
368.255371 186.0 
368.865356 166.0 
368.91748 137.0 
369.067749 133.0 
369.137482 21752.0 
369.704163 41.0 
370.140533 3492.0 
370.448395 41.0 
371.15451 100.0 
372.761566 75.0 
372.961121 101.0 
373.135071 4905.0 
373.835602 206.0 
374.133392 2205.0 
378.222321 207.0 
380.143951 237.0 
380.858765 90.0 
381.147766 272.0 
381.541016 87.0 
381.835236 245.0 
382.142883 355.0 
382.17099 390.0 
382.389709 95.0 
382.439911 106.0 
382.586426 355.0 
383.013733 320.0 
383.117126 30899.0 
383.210632 356.0 
383.260498 67.0 
383.843384 86.0 
383.945862 292.0 
384.047546 129.0 
384.120178 8051.0 
384.186035 398.0 
384.630157 129.0 
385.132263 16953.0 
385.719177 67.0 
386.138489 2919.0 
386.731384 170.0 
386.810089 87.0 
386.940308 66.0 
387.144104 327.0 
387.594696 167.0 
391.654327 128.0 
393.29248 235.0 
394.981354 151.0 
395.071594 336.0 
395.117737 12094.0 
396.11972 2628.0 
397.656372 144.0 
397.924774 148.0 
398.166138 2627.0 
398.707672 129.0 
399.170349 851.0 
400.109772 175.0 
400.180664 3418.0 
400.812714 81.0 
401.188843 1043.0 
402.137238 145.0 
408.931274 93.0 
410.912598 103.0 
412.973053 202.0 
413.12677 6781.0 
414.133911 1846.0 
414.997803 147.0 
416.178375 1009.0 
416.866241 133.0 
418.034027 158.0 
420.456482 72.0 
423.371307 93.0 
423.634308 88.0 
423.937683 84.0 
424.132751 56.0 
425.14566 299.0 
425.513245 118.0 
425.556488 214.0 
425.63678 103.0 
425.69223 131.0 
425.755219 53.0 
425.855469 287.0 
426.086395 1242.0 
426.16037 80671.0 
426.294189 153.0 
426.480133 102.0 
426.696503 66.0 
426.805725 164.0 
427.037598 200.0 
427.161743 17000.0 
427.47406 119.0 
427.927155 58.0 
428.186981 71.0 
428.932159 58.0 
429.544617 107.0 
429.634827 54.0 
429.696167 104.0 
429.755585 62.0 
429.987671 101.0 
430.102722 121.0 
430.142578 173.0 
441.751251 63.0 
442.684296 121.0 
443.138245 85.0 
443.72876 126.0 
444.06308 147.0 
444.171417 12992.0 
445.174377 2923.0 
446.24118 69.0 
450.843842 145.0 
455.916138 109.0 
519.672424 127.0 
628.04187 60.0 
665.20813 106.0 
887.169373 49.0 
959.956482 102.0 
1050.989502 71.0 
1088.322998 188.0 
1111.285278 102.0 
1136.947144 69.0 
1232.359497 90.0 
1442.205444 241.0 
1472.588379 72.0 
1543.859863 244.0 
1592.144653 275.0 
1629.928711 309.0 
1660.308594 242.0 
1693.912964 185.0 
1698.119507 166.0 
1716.484741 234.0 
1742.253418 119.0 
1783.762207 219.0 
1793.941528 226.0 
1796.923828 48.0 
1798.880371 177.0 
1812.640137 314.0 
1823.968506 121.0 
1824.815308 240.0 
1870.087158 210.0 
1884.865845 134.0 
1918.579224 235.0 
1928.106445 196.0 
1937.289673 184.0 
1954.42749 345.0 
1956.160034 316.0 
1987.784058 115.0 
2001.043945 74.0 
END IONS

BEGIN IONS
TITLE=Scan Number: 370
PEPMASS=426.155
CHARGE=1+
MSLEVEL=2
FILENAME=E12_RE12_01_2768.mzXML
INSTRUMENT=ion trap
SCANS=370
SMILES=CC1NC2N(C1=O)C3=CC=CC=C3C24CC5N6C(=O)C7=C(C=CC=C7)N=C6C(O4)N(C)C5=O
INCHIKEY=BOZGEGDMHAOPIQ-UHFFFAOYSA-N
96.10743 149.0 
102.965149 204.0 
104.049492 233.0 
116.044266 149.0 
116.138344 82.0 
120.038002 246.0 
126.130119 223.0 
129.029297 109.0 
129.045654 131.0 
130.029312 3946.0 
130.065155 247.0 
131.033829 234.0 
132.039307 254.0 
144.047745 161.0 
145.093018 134.0 
146.070374 219.0 
147.054749 541.0 
154.158783 148.0 
155.061142 148.0 
156.067001 107.0 
157.042038 131.0 
157.081375 223.0 
158.084106 2428.0 
162.057617 269.0 
163.048203 154.0 
169.07666 363.0 
171.056396 23143.0 
171.09285 448.0 
172.019211 249.0 
172.059555 2073.0 
172.092743 128.0 
172.313248 95.0 
173.072983 233.0 
181.076157 286.0 
182.09906 99.0 
183.091461 544.0 
185.071701 330.0 
186.078552 1226.0 
187.013077 182.0 
187.082123 70.0 
188.08812 335.0 
189.071472 344.0 
190.068405 151.0 
196.088074 176.0 
197.061447 108.0 
198.555695 180.0 
198.978439 343.0 
199.001709 374.0 
199.050369 14519.0 
199.094971 315.0 
200.056564 1047.0 
200.082031 649.0 
209.066238 290.0 
209.293472 254.0 
210.080078 304.0 
211.060608 214.0 
211.088348 187.0 
211.701675 149.0 
211.94751 156.0 
212.083908 5489.0 
213.04892 129.0 
213.08786 1404.0 
214.197342 67.0 
214.347229 261.0 
223.071732 178.0 
223.889893 253.0 
228.074432 278.0 
229.0811 469.0 
230.086594 122.0 
237.288986 84.0 
239.086792 128.0 
239.645721 170.0 
240.078262 56304.0 
240.4673 124.0 
241.079498 5262.0 
241.223557 115.0 
242.079086 216.0 
242.903244 84.0 
242.938858 166.0 
248.339569 130.0 
254.431625 76.0 
255.751846 408.0 
257.105377 286.0 
264.065948 130.0 
265.870514 209.0 
267.249603 183.0 
298.106903 148.0 
307.126709 180.0 
324.094849 158.0 
331.279083 103.0 
339.124695 182.0 
341.093628 414.0 
342.103363 150.0 
351.264984 201.0 
353.099213 211.0 
355.12381 699.0 
356.12262 171.0 
367.126709 85.0 
382.55777 112.0 
383.120117 1494.0 
383.186707 137.0 
384.116882 312.0 
395.115753 527.0 
396.133728 98.0 
397.128937 132.0 
398.16217 239.0 
426.159576 8312.0 
426.328369 135.0 
427.159698 2210.0 
427.270233 152.0 
1842.640625 202.0 
END IONS

BEGIN IONS
TITLE=Scan Number: 371
PEPMASS=477.13901
CHARGE=1+
MSLEVEL=2
FILENAME=E12_RE12_01_2768.mzXML
INSTRUMENT=ion trap
SCANS=371
SMILES=COC1=C(OC)C(O)=C2C(=O)C=C(OC2=C1)C3=CC=C(O[C@@H]4O[C@H](CO)[C@@H](O)[C@H](O)[C@H]4O)C=C3
INCHIKEY=RETJLKUBHXTIGH-FZFRBNDOSA-N
70.962929 225.0 
72.502754 310.0 
72.640083 261.0 
72.755013 121.0 
72.810036 220.0 
74.065727 135.0 
75.561058 210.0 
77.33783 291.0 
77.802422 184.0 
77.954163 261.0 
78.512001 279.0 
81.556274 200.0 
82.297607 179.0 
83.782944 198.0 
83.922523 323.0 
86.947708 178.0 
90.042358 210.0 
92.210373 268.0 
92.301003 178.0 
92.426575 174.0 
96.046211 304.0 
97.030678 524.0 
97.061897 178.0 
100.753349 280.0 
102.118858 139.0 
102.711975 170.0 
102.756462 222.0 
103.034767 187.0 
106.977623 166.0 
107.988297 154.0 
108.021385 2917.0 
108.164673 321.0 
109.099792 354.0 
112.62178 172.0 
115.036903 154.0 
115.051811 190.0 
115.510056 113.0 
118.043831 1230.0 
118.953842 176.0 
119.020279 237.0 
119.04879 4393.0 
120.054886 506.0 
121.028679 4524.0 
121.319641 176.0 
122.0326 100.0 
122.329048 257.0 
123.037071 195.0 
123.544968 231.0 
124.184937 357.0 
124.348053 158.0 
128.145416 146.0 
128.826492 444.0 
128.863235 198.0 
129.251221 174.0 
129.570602 625.0 
131.052734 144.0 
131.44072 131.0 
132.040314 315.0 
133.30542 160.0 
133.537384 214.0 
133.996872 107.0 
136.016068 5915.0 
137.01973 502.0 
138.879761 67.0 
139.918594 178.0 
140.012039 150.0 
143.753006 209.0 
143.903473 220.0 
144.06221 200.0 
144.645294 347.0 
145.733521 204.0 
150.606552 143.0 
151.033936 250.0 
151.458008 219.0 
151.624756 194.0 
152.007462 908.0 
152.20224 181.0 
153.01738 586.0 
153.070663 132.0 
154.026123 6538.0 
154.069809 220.0 
154.204941 78.0 
155.006241 205.0 
155.029129 325.0 
156.10936 292.0 
156.419662 110.0 
156.941467 156.0 
158.073105 540.0 
159.441391 154.0 
159.593964 173.0 
159.698044 309.0 
162.988724 172.0 
163.040634 429.0 
166.99791 192.0 
168.925827 288.0 
169.066345 488.0 
169.806946 338.0 
169.914597 169.0 
170.014481 200.0 
170.072739 2258.0 
172.523788 183.0 
177.022354 320.0 
179.029709 172.0 
179.547485 237.0 
181.064819 178.0 
182.022858 699.0 
182.398468 297.0 
183.027481 82.0 
184.060104 85.0 
185.007278 210.0 
185.023148 257.0 
186.040726 171.0 
186.5914 173.0 
189.456161 278.0 
192.987457 227.0 
193.501602 375.0 
196.996796 172.0 
197.060135 1982.0 
197.173462 192.0 
198.063889 768.0 
198.65918 189.0 
198.9664 260.0 
199.071945 284.0 
200.030258 126.0 
200.122192 274.0 
201.057343 216.0 
204.146469 326.0 
206.752045 194.0 
206.879807 272.0 
207.938293 143.0 
208.056641 267.0 
209.062637 407.0 
209.48494 126.0 
211.913116 222.0 
212.039185 306.0 
212.511978 119.0 
216.640869 140.0 
218.330811 112.0 
220.38063 171.0 
222.097382 245.0 
222.253036 198.0 
223.776672 221.0 
225.050705 336.0 
225.488297 233.0 
225.99472 367.0 
226.062958 8572.0 
226.11293 174.0 
226.479431 258.0 
227.066025 1659.0 
228.450378 164.0 
229.874466 77.0 
231.333542 261.0 
231.879257 74.0 
232.78215 141.0 
233.632309 175.0 
235.206223 66.0 
237.797409 295.0 
238.788956 205.0 
239.344589 236.0 
239.997833 199.0 
240.047195 102.0 
240.950882 342.0 
241.058365 135.0 
241.677673 134.0 
243.065353 262.0 
248.703812 289.0 
248.907715 284.0 
249.218384 309.0 
252.040207 1705.0 
252.142059 76.0 
252.920593 111.0 
253.049835 640.0 
253.098129 185.0 
253.180359 218.0 
253.616867 193.0 
253.793091 97.0 
253.830963 155.0 
253.894958 226.0 
253.918594 298.0 
253.97403 261.0 
254.058258 139277.0 
254.437531 88.0 
254.500671 129.0 
254.672455 192.0 
254.947128 115.0 
255.06279 18479.0 
255.74762 119.0 
255.797821 120.0 
256.036865 446.0 
256.062622 1895.0 
256.859009 140.0 
256.951202 146.0 
256.994202 106.0 
257.047791 2232.0 
257.282501 155.0 
257.544769 166.0 
258.012054 155.0 
258.05011 439.0 
259.286652 256.0 
260.044189 247.0 
263.276367 206.0 
264.0466 94.0 
265.039673 82.0 
265.556793 301.0 
266.567413 169.0 
267.039246 176.0 
267.33313 224.0 
268.022644 180.0 
268.054626 182.0 
269.044861 170.0 
269.078003 519.0 
269.32254 117.0 
270.017303 264.0 
270.053284 6639.0 
270.252808 85.0 
270.915771 83.0 
270.977081 485.0 
271.008911 117.0 
271.06073 8247.0 
271.371063 176.0 
272.058868 462.0 
272.373962 289.0 
272.849396 93.0 
272.938812 190.0 
274.082458 100.0 
276.982635 118.0 
280.075012 416.0 
280.565857 99.0 
281.041626 427.0 
281.32962 148.0 
281.374115 133.0 
281.412903 89.0 
281.66629 81.0 
281.819763 107.0 
281.853912 66.0 
281.966553 275.0 
282.053131 152580.0 
282.115814 97.0 
282.389313 306.0 
282.483521 92.0 
282.549896 310.0 
282.614288 99.0 
282.9664 158.0 
283.056488 22661.0 
283.303589 153.0 
283.410645 144.0 
283.621765 79.0 
284.055481 1535.0 
284.5672 138.0 
284.922211 180.0 
285.041107 5032.0 
285.128845 448.0 
285.191345 137.0 
285.410431 68.0 
285.70282 259.0 
286.041504 1816.0 
286.087646 327.0 
287.048523 327.0 
288.480957 312.0 
289.204712 176.0 
289.497406 198.0 
290.420807 234.0 
291.164795 192.0 
291.491394 108.0 
294.369598 104.0 
296.565674 218.0 
297.079224 983.0 
297.299744 149.0 
298.113495 105.0 
298.227142 98.0 
298.39975 70.0 
298.542389 331.0 
298.956299 187.0 
299.054138 10082.0 
299.290955 132.0 
299.373505 218.0 
299.39856 306.0 
299.48938 140.0 
299.519775 397.0 
299.868469 108.0 
299.898834 366.0 
299.983673 830.0 
300.063995 82086.0 
300.247223 130.0 
300.292419 223.0 
300.526001 80.0 
300.973419 158.0 
301.067932 10792.0 
301.393829 145.0 
301.581482 92.0 
301.834076 203.0 
301.991791 246.0 
302.066254 753.0 
302.862488 206.0 
303.05127 100.0 
303.181061 320.0 
307.116608 250.0 
309.081299 269.0 
310.389618 213.0 
311.011902 157.0 
312.300232 183.0 
312.608826 262.0 
312.970795 222.0 
313.041107 229.0 
313.25592 132.0 
313.428375 218.0 
313.498291 180.0 
313.615143 83.0 
313.6492 157.0 
313.744141 96.0 
313.792175 148.0 
313.838165 351.0 
313.904572 83.0 
313.971069 126.0 
314.065338 509.0 
314.165802 200.0 
314.202515 184.0 
314.254517 112.0 
314.288696 207.0 
314.332642 133.0 
314.396393 332.0 
314.515808 244.0 
314.555298 92.0 
314.583832 87.0 
314.681274 518.0 
314.747009 397.0 
314.846954 322.0 
314.915619 428.0 
314.966766 753.0 
315.087769 578698.0 
315.233154 663.0 
315.273254 106.0 
315.301086 160.0 
315.430115 258.0 
315.52771 347.0 
315.595001 322.0 
315.633423 125.0 
315.665497 151.0 
315.726776 343.0 
315.793579 181.0 
315.82489 91.0 
315.901581 119.0 
315.939331 120.0 
316.091675 80685.0 
316.146729 434.0 
316.196747 369.0 
316.307831 68.0 
316.36084 147.0 
316.613861 88.0 
316.705139 195.0 
317.091461 3338.0 
317.210114 92.0 
317.275604 197.0 
317.573883 82.0 
317.625702 64.0 
317.691284 80.0 
317.844299 82.0 
317.881287 116.0 
317.912445 113.0 
318.028748 110.0 
318.106689 368.0 
318.154449 79.0 
318.239044 92.0 
318.284332 252.0 
318.380341 575.0 
318.441467 73.0 
318.49704 123.0 
318.990387 85.0 
319.264343 95.0 
319.319824 132.0 
319.522278 135.0 
319.56012 107.0 
320.43222 140.0 
326.278107 84.0 
327.465332 89.0 
328.066559 111.0 
328.670319 120.0 
333.303223 117.0 
334.728638 133.0 
354.546661 141.0 
355.245483 272.0 
355.486053 257.0 
357.105988 124.0 
377.995117 337.0 
395.119293 96.0 
399.177856 183.0 
406.203278 194.0 
421.057831 156.0 
436.211334 156.0 
445.123047 246.0 
460.291718 235.0 
464.820129 196.0 
472.310883 89.0 
474.100708 166.0 
475.911163 208.0 
475.987091 163.0 
476.169006 98.0 
476.282288 90.0 
476.654175 116.0 
476.696838 129.0 
476.981201 224.0 
477.141205 48689.0 
477.289978 214.0 
477.350464 273.0 
477.883148 136.0 
477.962128 99.0 
478.045013 119.0 
478.144745 9606.0 
478.435577 70.0 
478.55011 94.0 
479.033569 134.0 
479.090546 155.0 
480.582947 146.0 
481.068817 80.0 
481.15976 117.0 
767.26178 91.0 
769.923218 94.0 
1072.745972 86.0 
1565.998535 115.0 
1927.710327 152.0 
1971.240845 251.0 
END IONS

BEGIN IONS
TITLE=Scan Number: 372
PEPMASS=560.31702
CHARGE=1+
MSLEVEL=2
FILENAME=E12_RE12_01_2768.mzXML
INSTRUMENT=ion trap
SCANS=372
SMILES=CC(C)C(NC(=O)C(C)OC(=O)C(NC(=O)C(OC(=O)C(NC(=O)C(C)O)C(C)C)C(C)C)C(C)C)C(O)=O
INCHIKEY=YBUWNKPGCLTWJO-UHFFFAOYSA-N
70.062103 753.0 
70.715858 197.0 
71.08493 204.0 
71.756409 164.0 
71.874138 360.0 
72.006927 70.0 
72.022438 177.0 
72.045036 348.0 
72.080811 105875.0 
72.115814 38.0 
72.141747 225.0 
72.166962 175.0 
72.215065 171.0 
72.242401 131.0 
72.294601 111.0 
72.38118 87.0 
72.456047 166.0 
72.619095 95.0 
72.775726 331.0 
72.809502 44.0 
72.882286 78.0 
73.044922 167.0 
73.063416 408.0 
73.084465 4348.0 
73.138756 40.0 
73.218735 256.0 
73.249519 52.0 
73.27755 170.0 
73.473595 71.0 
73.561272 68.0 
73.601654 114.0 
73.617165 541.0 
73.731735 148.0 
73.790283 121.0 
74.021271 195.0 
74.755302 221.0 
75.202995 155.0 
75.29248 97.0 
75.608192 198.0 
76.811859 118.0 
77.70179 195.0 
78.924171 356.0 
79.409569 150.0 
79.482208 56.0 
81.209358 332.0 
82.06385 139.0 
82.108765 352.0 
82.15741 48.0 
82.537262 109.0 
82.841042 244.0 
83.049347 3814.0 
83.085007 364.0 
83.138359 104.0 
83.280571 165.0 
83.328682 55.0 
84.056931 147.0 
84.077316 203.0 
85.070236 39.0 
85.329933 55.0 
86.216675 169.0 
87.056999 124.0 
87.712013 240.0 
88.309723 271.0 
90.055511 115.0 
90.089485 209.0 
90.635872 171.0 
90.789162 225.0 
91.810577 212.0 
92.929695 563.0 
93.887505 210.0 
94.73912 114.0 
95.837517 251.0 
95.857368 145.0 
96.077515 143.0 
96.38752 47.0 
97.908363 206.0 
97.93998 169.0 
98.061081 5549.0 
98.097359 3384.0 
98.12764 123.0 
98.55204 207.0 
99.057953 188.0 
99.742157 180.0 
99.867805 93.0 
100.029327 313.0 
100.078079 235.0 
100.919327 302.0 
102.77317 254.0 
103.231171 257.0 
107.951866 50.0 
108.271652 168.0 
110.397369 147.0 
111.501587 116.0 
112.113113 502.0 
112.315643 69.0 
113.107414 468.0 
115.212448 49.0 
116.071701 642.0 
116.106636 398.0 
117.073372 171.0 
118.085434 555.0 
119.936089 219.0 
121.821449 130.0 
123.286133 378.0 
124.684334 308.0 
126.090385 804.0 
126.126801 112.0 
126.865669 310.0 
127.101891 165.0 
128.072632 278.0 
128.731934 182.0 
136.740646 228.0 
136.947876 101.0 
141.924576 118.0 
142.078278 203.0 
142.244354 146.0 
142.330002 101.0 
142.805298 215.0 
142.997421 79.0 
143.094437 120.0 
143.142731 109.0 
143.186569 123.0 
143.474518 109.0 
143.696014 253.0 
143.741455 206.0 
143.763351 210.0 
143.787628 193.0 
143.81929 164.0 
143.874603 159.0 
143.930298 491.0 
143.981476 180.0 
144.102921 620657.0 
144.143738 666.0 
144.182526 320.0 
144.211212 201.0 
144.239044 221.0 
144.280594 163.0 
144.308304 223.0 
144.337418 310.0 
144.390793 266.0 
144.437103 279.0 
144.48201 251.0 
144.525238 442.0 
144.561371 335.0 
144.615707 38.0 
144.675308 150.0 
144.719284 122.0 
144.761795 158.0 
144.830429 86.0 
144.880081 48.0 
145.105789 36668.0 
145.150085 72.0 
145.212921 161.0 
145.252655 42.0 
145.283401 53.0 
145.323395 289.0 
145.494995 57.0 
145.607422 68.0 
145.639374 121.0 
145.921021 83.0 
145.997681 101.0 
146.020874 58.0 
146.108429 2239.0 
146.146271 143.0 
146.16655 272.0 
146.191467 459.0 
146.233582 235.0 
146.261978 164.0 
146.30954 615.0 
146.462814 83.0 
146.519409 171.0 
146.556732 105.0 
147.074799 175.0 
147.105194 120.0 
147.190796 107.0 
147.247208 137.0 
147.866882 161.0 
151.153534 111.0 
151.404297 51.0 
152.036652 54.0 
152.088562 103.0 
152.381073 177.0 
152.425003 67.0 
152.65065 56.0 
152.718933 112.0 
153.434677 66.0 
154.085068 320.0 
154.124252 14008.0 
155.127197 627.0 
155.337692 135.0 
155.963211 151.0 
156.184616 153.0 
156.424576 59.0 
156.459702 128.0 
156.548828 39.0 
156.606186 111.0 
156.641174 89.0 
156.866714 40.0 
159.773727 77.0 
161.817413 118.0 
161.922882 245.0 
166.306564 80.0 
169.654495 152.0 
170.084091 134.0 
170.618057 143.0 
170.86676 282.0 
171.368622 109.0 
171.636185 263.0 
171.769211 121.0 
171.818558 342.0 
171.868011 195.0 
171.89711 105.0 
171.980301 712.0 
172.098007 136235.0 
172.134552 116013.0 
172.19899 181.0 
172.22084 150.0 
172.245911 143.0 
172.297012 221.0 
172.359604 90.0 
172.511993 210.0 
172.613358 120.0 
172.64183 175.0 
172.742081 56.0 
172.792465 61.0 
172.939407 109.0 
173.1017 8244.0 
173.137314 9060.0 
173.743134 92.0 
173.829193 59.0 
174.001892 89.0 
174.031067 60.0 
174.057297 54.0 
174.102737 474.0 
174.140335 152.0 
174.287338 101.0 
174.329407 63.0 
174.377625 192.0 
174.409973 87.0 
174.45163 271.0 
174.511475 381.0 
174.538788 158.0 
174.564453 356.0 
174.644257 65.0 
174.813446 108.0 
175.456573 292.0 
177.533646 131.0 
179.868942 79.0 
180.336288 67.0 
181.246567 74.0 
181.566666 58.0 
182.118149 1151.0 
183.119125 534.0 
183.973328 60.0 
185.83548 53.0 
185.934265 153.0 
185.984467 59.0 
186.304443 102.0 
186.705582 45.0 
190.110855 2189.0 
191.110153 232.0 
193.896057 150.0 
196.44812 120.0 
198.077774 139.0 
198.121429 329.0 
198.144257 137.0 
199.062912 65.0 
199.580414 87.0 
200.047638 229.0 
200.129242 16088.0 
200.17421 140.0 
200.825607 177.0 
201.081146 310.0 
201.132553 2391.0 
201.319885 81.0 
201.88353 319.0 
210.695297 98.0 
211.108276 168.0 
211.707764 135.0 
212.405014 181.0 
214.337723 218.0 
216.120987 248.0 
217.620728 64.0 
218.142059 516.0 
222.474884 156.0 
228.604446 100.0 
232.70369 85.0 
235.769684 133.0 
243.171753 1415.0 
244.05217 215.0 
244.120209 287.0 
244.166138 850.0 
246.813766 39.0 
249.82283 277.0 
254.137466 814.0 
254.427597 259.0 
255.150192 188.0 
261.847351 75.0 
265.122559 63.0 
269.155487 127.0 
270.983978 231.0 
271.203064 2088.0 
271.533417 109.0 
271.689514 103.0 
272.084473 127.0 
272.151367 74083.0 
272.271576 186.0 
272.309357 138.0 
272.356659 90.0 
272.887543 144.0 
272.937592 330.0 
273.154297 5955.0 
274.090759 120.0 
274.158539 449.0 
274.854309 97.0 
274.932739 44.0 
275.01413 43.0 
275.123993 232.0 
275.345398 316.0 
275.608734 89.0 
285.817047 105.0 
288.754272 70.0 
289.17688 1848.0 
289.498352 126.0 
290.021423 175.0 
290.166534 1072.0 
291.168701 126.0 
294.14917 64.0 
296.679138 154.0 
299.198975 136.0 
300.890106 291.0 
302.785706 101.0 
304.578583 204.0 
310.519867 99.0 
315.151276 207.0 
315.196228 70.0 
321.942078 115.0 
325.172546 229.0 
325.213531 3154.0 
326.217896 167.0 
333.462372 130.0 
338.976288 97.0 
340.540863 165.0 
341.065948 147.0 
341.307739 83.0 
341.619049 82.0 
341.710419 63.0 
341.756073 102.0 
341.814087 192.0 
341.861603 177.0 
341.893829 103.0 
341.963959 112.0 
342.058838 93.0 
342.095917 223.0 
342.142151 97.0 
342.256958 71.0 
342.513947 100.0 
342.656586 411.0 
342.737549 89.0 
342.796295 437.0 
342.844757 157.0 
342.990601 202.0 
343.043182 619.0 
343.093933 325.0 
343.145538 1010.0 
343.225708 220886.0 
343.339813 160.0 
343.430298 76.0 
343.577454 158.0 
343.63092 39.0 
343.681915 293.0 
343.78894 91.0 
343.845703 72.0 
343.887238 357.0 
343.983276 61.0 
344.049927 150.0 
344.170715 650.0 
344.229095 28630.0 
344.360077 134.0 
344.433502 67.0 
344.51358 169.0 
344.820648 163.0 
345.008972 56.0 
345.12262 199.0 
345.163269 48.0 
345.228516 1136.0 
345.30899 79.0 
345.343414 63.0 
345.428833 123.0 
345.7323 84.0 
345.88269 86.0 
346.175903 113.0 
346.389862 70.0 
346.50943 94.0 
346.591309 159.0 
346.662903 182.0 
346.690338 298.0 
346.728119 94.0 
346.750854 124.0 
346.784027 65.0 
346.856384 352.0 
347.819183 113.0 
353.206482 124.0 
355.731934 187.0 
356.593994 55.0 
358.425598 155.0 
361.574097 139.0 
362.669891 52.0 
367.53772 293.0 
367.988525 87.0 
368.754364 66.0 
369.266205 110.0 
369.398499 55.0 
369.790375 85.0 
369.880646 221.0 
370.124146 59.0 
370.312714 48.0 
370.512604 115.0 
370.542084 170.0 
371.118073 385.0 
371.169983 1703.0 
371.221069 55713.0 
371.312134 46.0 
371.382172 95.0 
371.421417 46.0 
371.548767 76.0 
371.609497 87.0 
371.748413 133.0 
372.046112 72.0 
372.223145 7221.0 
372.276306 113.0 
372.730499 69.0 
373.143036 100.0 
373.195099 84.0 
373.229431 320.0 
374.622772 59.0 
374.681274 162.0 
374.744965 124.0 
374.917938 72.0 
375.699615 194.0 
377.278961 121.0 
387.155426 123.0 
389.121887 97.0 
389.151917 177.0 
389.231323 6120.0 
390.229126 1031.0 
397.243591 122.0 
414.093353 166.0 
415.248108 2398.0 
416.257782 236.0 
416.522644 179.0 
425.223267 146.0 
430.858459 96.0 
442.137329 174.0 
442.2966 1503.0 
443.190643 201.0 
443.243042 15752.0 
444.070465 236.0 
444.246033 1659.0 
444.44519 76.0 
446.087097 82.0 
453.292816 73.0 
461.121582 128.0 
461.252289 538.0 
462.261536 103.0 
470.294708 257.0 
471.877838 69.0 
484.573517 138.0 
488.304504 1209.0 
493.684723 191.0 
496.301331 647.0 
505.443237 216.0 
508.404816 80.0 
509.965332 70.0 
510.880676 240.0 
511.97229 74.0 
513.175781 133.0 
513.329529 273.0 
513.832642 288.0 
514.10907 97.0 
514.213379 406.0 
514.316895 38900.0 
514.450256 83.0 
515.317566 7488.0 
515.429993 63.0 
515.491577 138.0 
515.641235 105.0 
516.09137 80.0 
516.135986 73.0 
516.330566 345.0 
517.70343 104.0 
518.999146 110.0 
519.407898 156.0 
524.308777 170.0 
531.648682 83.0 
542.241455 529.0 
542.3172 5674.0 
542.626831 228.0 
542.791931 189.0 
543.187195 70.0 
543.227722 78.0 
543.312622 1026.0 
560.320618 3010.0 
561.302673 216.0 
561.343079 414.0 
564.292358 161.0 
712.863037 84.0 
780.206177 76.0 
876.890259 169.0 
957.648926 70.0 
1202.144287 389.0 
1219.021484 44.0 
1232.160522 162.0 
1312.897705 80.0 
1322.566284 196.0 
1414.303345 136.0 
1550.657715 377.0 
1570.263184 420.0 
1580.519897 291.0 
1622.917236 238.0 
1667.737671 191.0 
1680.681763 87.0 
1680.969604 195.0 
1687.901611 262.0 
1701.286377 341.0 
1704.646484 298.0 
1708.126587 124.0 
1761.85376 148.0 
1797.403931 247.0 
1807.820435 61.0 
1820.717041 212.0 
1823.113403 244.0 
1823.542236 111.0 
1823.676636 221.0 
1831.209595 126.0 
1845.861816 189.0 
1860.834229 189.0 
1898.173096 333.0 
1899.324463 220.0 
1905.82605 169.0 
1918.179199 244.0 
1938.558594 216.0 
1943.373047 111.0 
1947.387939 189.0 
1954.07605 373.0 
1968.450195 170.0 
1980.885742 66.0 
1983.927002 117.0 
1987.112671 180.0 
1995.327515 194.0 
END IONS

BEGIN IONS
TITLE=Scan Number: 373
PEPMASS=577.34399
CHARGE=1+
MSLEVEL=2
FILENAME=E12_RE12_01_2768.mzXML
INSTRUMENT=ion trap
SCANS=373
SMILES=CC(C)C(NC(=O)C(C)OC(=O)C(NC(=O)C(OC(=O)C(NC(=O)C(C)O)C(C)C)C(C)C)C(C)C)C(O)=O
INCHIKEY=YBUWNKPGCLTWJO-UHFFFAOYSA-N
71.806564 131.0 
72.080528 33704.0 
72.447273 104.0 
72.481537 89.0 
72.828598 227.0 
73.054382 182.0 
73.083832 1367.0 
73.123909 79.0 
73.483742 194.0 
80.776482 244.0 
82.981522 150.0 
83.048988 1667.0 
83.088318 161.0 
84.053635 188.0 
84.078751 141.0 
88.587852 221.0 
89.33503 482.0 
91.810883 192.0 
95.772369 119.0 
97.278313 120.0 
98.060974 2492.0 
98.09552 637.0 
99.09742 238.0 
100.076447 105.0 
100.093628 374.0 
101.050522 110.0 
103.292961 152.0 
103.48661 247.0 
109.488159 282.0 
112.111778 436.0 
113.652351 230.0 
116.072388 206.0 
117.981163 194.0 
118.088142 491.0 
121.506264 147.0 
126.052917 284.0 
126.092354 247.0 
126.130096 177.0 
128.629883 222.0 
129.365448 216.0 
130.667114 200.0 
131.007309 227.0 
133.51181 271.0 
133.626266 170.0 
134.685715 145.0 
136.117203 346.0 
142.706146 91.0 
143.088501 103.0 
143.595795 148.0 
143.62915 211.0 
143.801422 375.0 
143.827332 157.0 
143.92984 116.0 
143.976898 160.0 
144.015625 218.0 
144.047318 372.0 
144.102829 213156.0 
144.159836 228.0 
144.198929 117.0 
144.220459 155.0 
144.290222 282.0 
144.314667 155.0 
144.354172 218.0 
144.391449 174.0 
144.503143 326.0 
145.045578 90.0 
145.071548 182.0 
145.106064 13985.0 
145.75795 88.0 
145.866379 98.0 
146.012436 94.0 
146.052292 177.0 
146.110153 1249.0 
146.208344 146.0 
146.242264 281.0 
146.500671 203.0 
146.60524 95.0 
146.997375 290.0 
147.188019 79.0 
147.485886 121.0 
147.619003 69.0 
147.658279 101.0 
148.20134 165.0 
152.002686 91.0 
152.329865 82.0 
152.449402 113.0 
152.780136 101.0 
153.398056 157.0 
154.030396 256.0 
154.080627 327.0 
154.12352 6445.0 
155.128464 393.0 
156.004105 93.0 
160.445908 250.0 
162.669006 314.0 
167.453278 137.0 
172.031372 210.0 
172.098083 56945.0 
172.134308 47554.0 
172.25029 105.0 
172.398651 157.0 
172.610077 202.0 
173.100952 2234.0 
173.136398 2492.0 
174.034805 288.0 
174.106293 128.0 
174.274841 99.0 
174.304886 133.0 
174.400467 97.0 
174.504089 102.0 
175.075058 172.0 
182.118347 1830.0 
182.396545 125.0 
183.127365 157.0 
188.059174 142.0 
190.108551 1273.0 
190.972504 183.0 
191.051361 253.0 
192.055756 608.0 
200.090012 221.0 
200.129974 5337.0 
201.043045 264.0 
201.130508 534.0 
202.041122 137.0 
202.139191 100.0 
207.010025 166.0 
207.453766 144.0 
208.820053 134.0 
209.058304 134.0 
210.064499 509.0 
211.063324 81.0 
212.091522 211.0 
214.071243 198.0 
216.126907 160.0 
218.029678 201.0 
218.072815 840.0 
219.190247 265.0 
220.048325 176.0 
221.114716 223.0 
224.425262 147.0 
226.076859 247.0 
227.168762 254.0 
228.012863 182.0 
228.051498 569.0 
228.083679 375.0 
230.456345 68.0 
234.071442 131.0 
238.081314 434.0 
241.184799 149.0 
242.953918 319.0 
243.167084 280.0 
244.114395 395.0 
246.062531 664.0 
246.106415 436.0 
250.918243 163.0 
253.186691 165.0 
254.143631 636.0 
256.092102 180.0 
256.32193 196.0 
262.355438 136.0 
263.128113 113.0 
263.38385 139.0 
264.077881 1649.0 
264.118378 341.0 
265.082062 162.0 
269.16098 172.0 
271.206573 672.0 
272.106934 478.0 
272.151123 29702.0 
273.086945 163.0 
273.155029 3648.0 
273.745544 143.0 
274.097565 622.0 
275.101379 137.0 
280.095978 229.0 
281.118988 167.0 
281.196442 211.0 
282.087952 776.0 
285.608521 102.0 
289.183411 1627.0 
289.267151 156.0 
289.941528 168.0 
291.123047 98.0 
291.720337 76.0 
292.108948 247.0 
297.035339 210.0 
299.12674 119.0 
302.100006 83.0 
309.225555 189.0 
313.21701 237.0 
315.183594 186.0 
317.207703 180.0 
318.142548 164.0 
319.791168 193.0 
325.216858 1229.0 
326.216248 185.0 
328.132446 212.0 
328.202576 102.0 
337.115936 199.0 
340.624298 116.0 
341.173462 243.0 
341.677673 144.0 
342.586273 90.0 
342.67041 223.0 
342.951263 103.0 
343.062042 219.0 
343.117828 467.0 
343.225952 111194.0 
343.349335 117.0 
343.38443 115.0 
343.577545 83.0 
343.661377 156.0 
343.777496 104.0 
344.105316 211.0 
344.178131 496.0 
344.228485 13353.0 
345.227722 301.0 
346.111786 241.0 
346.266479 86.0 
346.647278 96.0 
347.513611 107.0 
355.164703 178.0 
362.052216 117.0 
364.1745 177.0 
366.65564 76.0 
366.826447 169.0 
369.164093 178.0 
369.572235 101.0 
370.150299 115.0 
370.985229 217.0 
371.094818 259.0 
371.124542 215.0 
371.221222 43938.0 
371.451782 173.0 
371.536804 159.0 
372.132996 70.0 
372.187683 515.0 
372.221436 5820.0 
373.153564 392.0 
373.229797 344.0 
373.804382 127.0 
374.162781 142.0 
374.409485 75.0 
374.90451 122.0 
375.72995 104.0 
376.162994 196.0 
381.149902 114.0 
383.241272 127.0 
389.164062 185.0 
389.232056 5252.0 
390.236786 588.0 
391.204651 259.0 
399.181427 222.0 
400.149353 120.0 
404.090027 162.0 
415.256775 863.0 
417.152008 211.0 
418.264587 115.0 
427.174255 1221.0 
428.160339 141.0 
435.164337 180.0 
441.661652 147.0 
442.727386 100.0 
442.841736 181.0 
443.239777 7699.0 
443.902069 77.0 
444.249115 1126.0 
445.194672 791.0 
461.201599 112.0 
461.253571 590.0 
462.254791 90.0 
463.196747 87.0 
470.281921 145.0 
476.413361 253.0 
489.303741 148.0 
494.910248 248.0 
496.288177 666.0 
497.313293 124.0 
498.112396 85.0 
498.245575 98.0 
510.403229 104.0 
512.635315 181.0 
514.073547 201.0 
514.317078 34320.0 
514.412476 177.0 
515.322021 4571.0 
515.770386 161.0 
516.043213 118.0 
516.115662 100.0 
516.245605 113.0 
516.326477 484.0 
518.548462 136.0 
528.287231 87.0 
541.431458 139.0 
542.228882 285.0 
542.314636 9739.0 
543.048096 70.0 
543.30896 2036.0 
543.877563 245.0 
544.809448 126.0 
546.702148 100.0 
560.14917 79.0 
560.233765 287.0 
560.321655 13687.0 
561.232483 320.0 
561.32196 2005.0 
562.327454 78.0 
578.315002 115.0 
595.351257 119.0 
598.144775 166.0 
598.192871 147.0 
598.265442 3254.0 
599.284546 140.0 
946.13031 80.0 
1228.696655 85.0 
1387.088379 251.0 
1616.875488 153.0 
1808.555176 218.0 
1832.064087 198.0 
1855.949829 265.0 
1897.699219 304.0 
1900.043823 215.0 
1925.55835 308.0 
1945.800293 224.0 
1988.121338 130.0 
END IONS

BEGIN IONS
TITLE=Scan Number: 375
PEPMASS=323.22101
CHARGE=1+
MSLEVEL=2
FILENAME=A10_RA10_01_2893.mzXML
INSTRUMENT=ion trap
SCANS=375
SMILES=CC(O)CCCCCCCCCC(=O)CC1=CC(O)=CC(O)=C1
INCHIKEY=LPIOEJKQFMDVFS-UHFFFAOYSA-N
77.037117 175.0 
79.053825 153.0 
79.145721 116.0 
81.06514 144.0 
83.087212 414.0 
86.098206 169.0 
90.870644 186.0 
91.052818 412.0 
95.048126 682.0 
106.039902 181.0 
107.048332 255.0 
109.063499 137.0 
111.04451 566.0 
115.056145 303.0 
118.063683 182.0 
120.080605 122.0 
121.063271 211.0 
122.067505 285.0 
123.043297 18420.0 
124.047035 927.0 
124.451805 129.0 
125.059898 768.0 
127.038475 171.0 
130.062347 149.0 
137.055283 167.0 
138.093124 412.0 
147.037201 334.0 
148.051575 209.0 
149.060013 1394.0 
151.077499 68.0 
153.055389 118.0 
156.091827 232.0 
158.053635 176.0 
160.056335 202.0 
161.058609 3079.0 
162.061417 526.0 
163.072662 128.0 
164.04483 168.0 
165.05719 183.0 
166.969528 189.0 
168.075897 234.0 
174.062439 349.0 
175.073746 419.0 
175.118164 266.0 
177.161743 153.0 
179.035614 127.0 
180.08049 367.0 
187.080643 126.0 
189.092422 1282.0 
191.107895 515.0 
203.105698 911.0 
204.101395 145.0 
211.102875 177.0 
217.116501 470.0 
219.135559 158.0 
221.150803 181.0 
235.071976 200.0 
251.078308 107.0 
287.19928 1430.0 
288.208405 656.0 
305.207153 385.0 
306.207031 125.0 
332.173492 136.0 
1934.063232 250.0 
END IONS

BEGIN IONS
TITLE=Scan Number: 376
PEPMASS=340.24799
CHARGE=1+
MSLEVEL=2
FILENAME=A10_RA10_01_2893.mzXML
INSTRUMENT=ion trap
SCANS=376
SMILES=CC(O)CCCCCCCCCC(=O)CC1=CC(O)=CC(O)=C1
INCHIKEY=LPIOEJKQFMDVFS-UHFFFAOYSA-N
71.035912 265.0 
73.955574 157.0 
74.043274 153.0 
74.140511 271.0 
77.04113 157.0 
79.055443 594.0 
80.054535 88.0 
81.032082 166.0 
81.070351 1260.0 
83.022461 93.0 
83.054489 271.0 
83.086021 826.0 
87.490395 376.0 
88.433662 366.0 
89.459824 167.0 
92.654831 153.0 
93.071106 605.0 
93.827477 270.0 
94.073677 103.0 
95.048798 1515.0 
95.089066 681.0 
97.063278 197.0 
98.104774 188.0 
103.054657 250.0 
104.489609 134.0 
105.042961 991.0 
107.047668 224.0 
107.086327 1117.0 
108.053108 120.0 
109.100563 548.0 
111.043877 307.0 
115.059715 162.0 
116.929482 301.0 
119.048759 475.0 
119.096306 231.0 
121.064285 149.0 
121.100693 279.0 
122.898834 88.0 
123.043396 76382.0 
123.297585 189.0 
123.517525 169.0 
124.047836 4302.0 
124.93248 210.0 
125.060669 1534.0 
125.11998 86.0 
126.059929 427.0 
128.171387 145.0 
129.456955 208.0 
130.70578 101.0 
131.04274 272.0 
131.207977 137.0 
133.067444 331.0 
133.098511 278.0 
133.493011 129.0 
134.525864 199.0 
135.085388 202.0 
137.022018 277.0 
137.05751 444.0 
137.135757 739.0 
139.743347 123.0 
141.068848 159.0 
143.050964 169.0 
144.057602 251.0 
146.069733 108.0 
147.039398 541.0 
147.076874 441.0 
148.051926 346.0 
149.036728 228.0 
149.059753 3580.0 
149.095642 133.0 
149.18927 261.0 
149.408844 134.0 
150.064896 338.0 
151.069092 492.0 
151.25119 137.0 
153.03862 142.0 
153.05748 396.0 
153.167557 74.0 
154.154907 145.0 
157.071625 289.0 
158.069199 163.0 
160.052155 263.0 
161.0578 7304.0 
162.064865 869.0 
163.073242 1315.0 
163.14505 774.0 
164.075104 155.0 
164.15538 100.0 
165.056732 446.0 
165.084579 174.0 
167.073486 173.0 
174.080978 323.0 
175.074051 3748.0 
176.081207 281.0 
177.085403 290.0 
178.186462 124.0 
179.067917 2259.0 
180.070374 116.0 
180.478363 244.0 
180.833801 208.0 
181.556259 140.0 
189.09082 6928.0 
190.094269 626.0 
191.105118 2922.0 
192.11113 161.0 
193.088409 257.0 
193.119812 174.0 
202.791168 142.0 
203.02594 123.0 
203.079056 352.0 
203.105682 6052.0 
204.109329 876.0 
205.121719 400.0 
206.121674 122.0 
208.901886 210.0 
217.120316 638.0 
219.135376 443.0 
222.088333 251.0 
231.136246 342.0 
235.084763 198.0 
237.174225 276.0 
245.155365 163.0 
248.167816 148.0 
257.034271 177.0 
259.164398 124.0 
287.150085 284.0 
287.197968 11324.0 
288.198456 715.0 
290.221893 144.0 
305.144287 141.0 
305.209167 8874.0 
306.139557 157.0 
306.20813 1195.0 
307.456055 155.0 
323.223358 111.0 
364.166321 179.0 
365.202972 119.0 
1342.975098 217.0 
1419.786743 282.0 
1445.976074 240.0 
1593.324829 187.0 
1776.271851 331.0 
END IONS

BEGIN IONS
TITLE=Scan Number: 378
PEPMASS=343.15399
CHARGE=1+
MSLEVEL=2
FILENAME=A10_RA10_01_2893.mzXML
INSTRUMENT=ion trap
SCANS=378
SMILES=CC1CC(CC(C)(C=C)C2=C(O)C3=C(C)C=CC=C3OC2=O)OC1=O
INCHIKEY=VKRXLYDRMJTDGD-UHFFFAOYSA-N
70.466759 78.0 
71.335663 303.0 
72.269714 298.0 
72.906586 174.0 
73.046089 259.0 
73.178741 219.0 
75.698128 226.0 
77.040466 1036.0 
79.053986 5059.0 
79.190208 256.0 
79.650444 283.0 
80.063591 282.0 
80.251076 26.0 
80.598213 244.0 
81.036087 162.0 
81.069649 924.0 
81.460487 54.0 
82.073822 189.0 
82.168167 52.0 
83.051086 169.0 
83.086372 1255.0 
83.43425 231.0 
84.075218 118.0 
84.673492 125.0 
85.942924 249.0 
88.179466 224.0 
89.079865 108.0 
91.022034 180.0 
91.054565 12220.0 
91.407814 167.0 
92.060043 411.0 
92.279099 204.0 
92.42067 160.0 
93.033821 994.0 
93.070099 12726.0 
93.099915 51.0 
93.350349 222.0 
93.964882 70.0 
94.01123 209.0 
94.073494 1540.0 
94.603355 175.0 
94.78788 81.0 
94.804016 175.0 
95.012924 1625.0 
95.050209 1469.0 
95.087097 1216.0 
96.088669 179.0 
96.318604 65.0 
96.762505 156.0 
97.026642 184.0 
98.066513 216.0 
98.112213 18.0 
98.242256 104.0 
99.447945 227.0 
101.072693 336.0 
102.061378 104.0 
103.028992 153.0 
103.054077 4654.0 
103.703087 175.0 
104.056625 381.0 
104.091789 155.0 
104.296471 374.0 
105.045723 6300.0 
105.070526 7221.0 
105.096519 313.0 
105.180481 54.0 
106.046028 710.0 
106.076904 668.0 
106.425911 209.0 
106.964256 288.0 
107.049454 4162.0 
107.086075 12258.0 
108.055283 447.0 
108.088417 877.0 
108.667572 131.0 
108.750587 280.0 
108.846977 208.0 
109.029533 155.0 
109.063972 1361.0 
109.102364 511.0 
110.069481 156.0 
111.055603 386.0 
111.083633 793.0 
112.215736 219.0 
113.084747 140.0 
114.462006 202.0 
114.887192 187.0 
115.054779 11573.0 
115.294899 87.0 
115.321747 50.0 
116.060928 1940.0 
116.292091 343.0 
117.070312 4226.0 
117.297127 204.0 
117.854942 128.0 
118.055206 249.0 
118.0783 235.0 
118.889244 151.0 
119.027252 146.0 
119.057678 3826.0 
119.085304 2111.0 
119.243523 90.0 
119.458504 205.0 
120.059982 436.0 
120.092896 624.0 
121.02961 520.0 
121.064384 17023.0 
121.101494 4556.0 
121.2883 227.0 
121.358109 139.0 
121.842613 232.0 
122.069435 2414.0 
122.9757 66.0 
123.043457 155.0 
123.08136 570.0 
125.061768 359.0 
127.055717 328.0 
127.072372 137.0 
127.968987 131.0 
128.062103 15696.0 
128.126999 229.0 
128.287903 80.0 
128.811356 42.0 
129.069992 20826.0 
129.596725 237.0 
129.88028 215.0 
130.016449 87.0 
130.074036 3800.0 
131.047256 1866.0 
131.085144 1781.0 
132.056717 1029.0 
132.087936 521.0 
132.272964 310.0 
132.673767 161.0 
133.066391 2917.0 
133.103348 848.0 
133.501221 175.0 
133.695663 144.0 
134.036667 324.0 
134.070343 411.0 
134.105789 147.0 
134.54628 180.0 
134.891968 159.0 
135.008957 784.0 
135.044266 86449.0 
135.08046 8321.0 
135.11647 3941.0 
135.386566 18.0 
135.497131 98.0 
135.712753 92.0 
136.047775 7797.0 
136.074203 470.0 
136.124481 104.0 
136.334671 48.0 
136.840042 68.0 
137.002396 84.0 
137.054398 261.0 
137.096222 387.0 
137.201523 93.0 
137.247345 67.0 
138.061005 157.0 
138.961838 359.0 
138.97966 248.0 
139.055054 441.0 
139.075516 118.0 
139.110474 253.0 
139.375961 37.0 
139.440826 181.0 
140.064514 67.0 
140.735703 34.0 
141.06987 22615.0 
141.133087 72.0 
141.178009 56.0 
141.588852 268.0 
142.024887 301.0 
142.077667 126136.0 
142.305923 97.0 
142.470795 76.0 
142.91861 248.0 
143.082245 19648.0 
143.30864 232.0 
143.339127 119.0 
143.382675 63.0 
143.594254 61.0 
143.889801 89.0 
143.990784 191.0 
144.056442 5365.0 
144.090088 1184.0 
144.130035 90.0 
144.15329 48.0 
144.166489 81.0 
144.23613 142.0 
144.378799 246.0 
145.06543 9341.0 
145.100998 7872.0 
145.13266 110.0 
145.172729 215.0 
145.576721 100.0 
146.069839 1246.0 
146.107773 205.0 
146.123886 276.0 
147.044617 2007.0 
147.078064 1093.0 
147.733826 293.0 
148.04924 442.0 
148.086197 718.0 
148.421921 64.0 
149.061371 710.0 
149.096924 2944.0 
150.062393 215.0 
150.097214 378.0 
150.559296 328.0 
151.074997 193.0 
152.020523 263.0 
152.06192 7215.0 
152.230515 188.0 
152.328888 96.0 
153.069183 2346.0 
153.42485 141.0 
153.546295 53.0 
153.865967 25.0 
154.016876 28.0 
154.053329 388.0 
154.076813 1895.0 
154.197601 46.0 
154.43631 206.0 
154.598267 48.0 
154.8246 21.0 
155.060272 6625.0 
155.085495 6418.0 
155.118942 162.0 
155.163757 27.0 
155.859955 121.0 
156.059052 466.0 
156.091751 2489.0 
156.138657 258.0 
156.869705 182.0 
156.919357 107.0 
157.015228 213.0 
157.043076 473.0 
157.065628 5538.0 
157.101379 46000.0 
157.394775 28.0 
157.483765 60.0 
157.50885 38.0 
158.033432 153.0 
158.0728 8404.0 
158.105392 5031.0 
158.571945 169.0 
158.887238 74.0 
159.045288 1055.0 
159.080704 8551.0 
159.117447 155.0 
159.204865 134.0 
159.93576 84.0 
160.009567 54.0 
160.055786 948.0 
160.084641 998.0 
160.183014 93.0 
161.059341 3939.0 
161.095764 301.0 
161.324249 465.0 
162.063141 1034.0 
162.181885 196.0 
163.039749 4895.0 
163.077026 550.0 
163.111984 13953.0 
163.159439 61.0 
164.043228 542.0 
164.114624 1557.0 
164.305405 423.0 
164.546829 25.0 
165.06926 4608.0 
165.25853 45.0 
165.444077 54.0 
166.051407 131.0 
166.077332 2817.0 
166.442017 65.0 
166.634109 26.0 
167.086075 3211.0 
167.19075 32.0 
167.368927 25.0 
168.059387 1544.0 
168.094604 699.0 
169.074493 5586.0 
169.483444 129.0 
170.073151 6180.0 
170.359985 271.0 
170.70015 223.0 
171.019989 165.0 
171.044571 973.0 
171.077286 1982.0 
171.116638 230.0 
171.528122 152.0 
172.050552 251.0 
172.085159 441.0 
172.115814 198.0 
172.316223 128.0 
172.387466 133.0 
172.436798 113.0 
172.506622 324.0 
172.910828 132.0 
172.994476 263.0 
173.019241 145.0 
173.059662 10087.0 
173.096298 21296.0 
173.160721 19.0 
173.261658 126.0 
173.588089 201.0 
174.062042 1430.0 
174.097183 1917.0 
175.042725 209.0 
175.072922 522.0 
175.191574 94.0 
175.265411 32.0 
176.067368 292.0 
176.107559 90.0 
176.603867 248.0 
176.948471 314.0 
177.054199 9739.0 
178.055557 985.0 
178.081696 846.0 
178.234955 120.0 
179.083313 632.0 
179.992981 98.0 
180.090073 525.0 
181.063492 795.0 
181.100723 676.0 
182.05278 189.0 
182.073975 626.0 
183.050522 552.0 
183.079712 4106.0 
183.119431 141.0 
184.084747 798.0 
185.026627 50.0 
185.096252 7371.0 
186.013138 88.0 
186.064835 1552.0 
186.10054 1093.0 
186.626587 64.0 
187.04129 1024.0 
187.074371 4447.0 
187.107758 547.0 
187.518036 100.0 
188.078674 271.0 
188.299469 216.0 
188.725845 143.0 
188.895508 167.0 
189.008255 354.0 
189.054611 48264.0 
189.089951 1500.0 
189.256088 189.0 
189.357254 138.0 
189.547333 128.0 
190.057205 4932.0 
190.267532 118.0 
190.728806 22.0 
190.947678 74.0 
191.069046 451.0 
191.105042 2171.0 
191.543015 69.0 
192.038589 34.0 
192.092941 341.0 
192.417892 80.0 
193.084167 203.0 
193.100983 255.0 
193.86615 54.0 
194.073685 549.0 
194.105698 180.0 
194.134018 224.0 
195.080414 244.0 
195.117722 230.0 
196.051407 296.0 
196.085556 523.0 
196.59346 110.0 
197.060226 244.0 
197.092621 700.0 
198.061722 542.0 
198.097961 324.0 
199.038696 359.0 
199.07518 1403.0 
199.109802 146.0 
199.999054 142.0 
200.043472 429.0 
200.07785 757.0 
201.056351 6167.0 
201.091232 24768.0 
201.153763 35.0 
201.214005 37.0 
202.05864 1115.0 
202.092377 3413.0 
202.314896 242.0 
202.470352 175.0 
202.980072 115.0 
203.070374 54575.0 
203.135239 218.0 
203.299133 281.0 
203.391418 82.0 
203.466049 72.0 
203.50679 47.0 
203.800751 108.0 
204.072861 6525.0 
205.058762 443.0 
205.104004 380.0 
205.254059 97.0 
205.426208 167.0 
205.642929 27.0 
206.314651 60.0 
206.561203 217.0 
206.776764 204.0 
207.020966 195.0 
207.058182 166.0 
207.09375 393.0 
208.089615 569.0 
209.031052 99.0 
209.098526 843.0 
209.641327 289.0 
210.108704 349.0 
210.552078 186.0 
211.07518 11127.0 
211.113754 410.0 
211.943604 141.0 
212.040604 145.0 
212.079666 1675.0 
213.018539 274.0 
213.054337 3148.0 
213.09137 1113.0 
213.296829 286.0 
213.775177 127.0 
214.060104 3824.0 
214.106094 122.0 
214.367554 49.0 
214.752365 57.0 
215.003067 195.0 
215.069641 22219.0 
215.107346 979.0 
215.249557 72.0 
215.324844 92.0 
215.955536 341.0 
216.072723 2390.0 
216.153748 86.0 
217.053207 353.0 
217.085938 4305.0 
217.398499 128.0 
217.577042 312.0 
218.088516 677.0 
219.080246 152.0 
220.124634 34.0 
221.044037 1041.0 
221.095795 423.0 
221.299515 95.0 
221.846237 60.0 
222.046661 187.0 
222.100647 293.0 
223.024521 158.0 
223.076035 593.0 
223.110718 549.0 
223.494614 119.0 
223.865051 37.0 
224.078583 535.0 
224.783569 211.0 
225.090256 976.0 
225.177063 49.0 
225.449066 51.0 
226.089523 157.0 
226.108398 128.0 
226.454865 96.0 
226.524414 171.0 
226.671906 85.0 
227.023117 868.0 
227.069946 19787.0 
227.172104 97.0 
227.384735 48.0 
227.425537 293.0 
228.07608 6158.0 
228.1689 21.0 
228.514984 297.0 
228.6008 238.0 
228.647446 190.0 
228.702423 80.0 
228.754166 191.0 
228.843674 206.0 
228.89769 160.0 
229.085938 227967.0 
229.153671 228.0 
229.173843 237.0 
229.255264 286.0 
229.277512 151.0 
229.324844 45.0 
229.424591 84.0 
229.509109 175.0 
229.585556 61.0 
229.612701 29.0 
229.637802 284.0 
229.9711 185.0 
230.089355 23114.0 
230.154266 162.0 
231.066696 2248.0 
231.099258 772.0 
231.34317 187.0 
231.42659 535.0 
231.544876 112.0 
231.58403 152.0 
231.622284 174.0 
231.691803 58.0 
231.790146 36.0 
231.848267 78.0 
231.923004 53.0 
232.074982 215.0 
232.098114 168.0 
232.124802 103.0 
232.694626 153.0 
232.882309 87.0 
233.08223 204.0 
234.09549 249.0 
234.13858 39.0 
235.074036 163.0 
235.098892 428.0 
235.430206 64.0 
235.707016 196.0 
236.103653 161.0 
236.125351 127.0 
237.090042 1231.0 
237.125107 99.0 
237.463333 304.0 
238.100967 121.0 
239.066483 296.0 
240.075851 471.0 
240.206543 113.0 
240.381027 65.0 
241.084686 8538.0 
241.147736 108.0 
241.992783 54.0 
242.085495 1060.0 
243.044403 290.0 
243.071243 925.0 
243.101379 10538.0 
244.101227 1597.0 
244.128784 233.0 
244.526489 29.0 
245.077805 1843.0 
245.11882 270.0 
245.604324 61.0 
246.099884 172.0 
247.069717 159.0 
247.111511 286.0 
247.896194 56.0 
248.110336 320.0 
249.086014 131.0 
249.118683 191.0 
250.097977 97.0 
251.041733 227.0 
251.105621 695.0 
251.141754 537.0 
252.118958 364.0 
253.083282 1116.0 
253.666199 66.0 
254.088531 238.0 
254.133881 302.0 
254.167297 127.0 
254.693542 295.0 
255.068329 549.0 
255.101791 8808.0 
255.937149 75.0 
256.108154 817.0 
256.141998 32.0 
259.061157 125.0 
261.13327 223.0 
261.431366 114.0 
263.062927 156.0 
263.109009 137.0 
264.190125 284.0 
265.088531 948.0 
267.098877 2098.0 
269.116699 6231.0 
269.148987 414.0 
270.035431 99.0 
270.082581 159.0 
270.12085 779.0 
270.154083 205.0 
271.129852 114.0 
273.090912 183.0 
273.114075 225.0 
274.719757 19.0 
277.081604 107.0 
277.264832 48.0 
279.13739 384.0 
280.143799 392.0 
281.154053 156.0 
282.118774 136.0 
282.173431 211.0 
283.095245 536.0 
283.130981 820.0 
284.1138 294.0 
289.122528 832.0 
290.122498 195.0 
292.070312 188.0 
292.102478 135.0 
296.137207 141.0 
296.649811 115.0 
297.067169 61.0 
297.148895 13517.0 
297.286835 39.0 
298.00708 91.0 
298.156311 1515.0 
298.473724 49.0 
304.965881 74.0 
305.757599 94.0 
306.001892 169.0 
307.095734 136.0 
307.131897 4953.0 
307.286865 74.0 
308.142212 972.0 
310.129059 156.0 
311.848602 81.0 
315.155579 169.0 
317.850433 25.0 
318.723602 50.0 
323.27829 103.0 
325.143646 14003.0 
325.207428 104.0 
325.560303 123.0 
326.143707 1720.0 
328.511261 20.0 
341.019806 25.0 
342.669464 108.0 
343.080963 348.0 
343.111847 1307.0 
343.153809 28648.0 
343.295105 119.0 
343.475372 44.0 
343.508423 39.0 
343.679718 160.0 
344.157928 3170.0 
345.143616 68.0 
345.608948 90.0 
346.244659 74.0 
346.333649 91.0 
423.607635 160.0 
548.665405 376.0 
563.569824 94.0 
656.285095 35.0 
833.474365 62.0 
1345.403809 214.0 
1488.759766 277.0 
1595.942871 30.0 
1634.929932 191.0 
1662.180054 208.0 
1704.596802 295.0 
1731.403564 149.0 
1740.720825 183.0 
1748.798828 260.0 
1776.255615 199.0 
1817.000488 183.0 
1852.303711 160.0 
1889.484863 141.0 
1948.380005 218.0 
1948.809692 188.0 
1972.872681 294.0 
1994.41748 215.0 
END IONS

BEGIN IONS
TITLE=Scan Number: 379
PEPMASS=357.16901
CHARGE=1+
MSLEVEL=2
FILENAME=A10_RA10_01_2893.mzXML
INSTRUMENT=ion trap
SCANS=379
SMILES=COC1=C(OC)C=C(CC(C)OC2=C(OC)C=C(\C=C\C=O)C=C2)C=C1
INCHIKEY=PUDXYWKCEYLTMQ-AATRIKPKSA-N
76.120453 176.0 
77.04097 303.0 
78.079796 152.0 
79.054398 847.0 
79.576096 304.0 
80.064064 993.0 
85.027893 192.0 
85.100288 206.0 
86.214958 170.0 
88.159851 121.0 
88.704872 266.0 
90.031357 243.0 
90.046005 758.0 
91.055145 11591.0 
92.05735 431.0 
93.033401 168.0 
93.069801 1723.0 
94.073647 123.0 
95.049309 982.0 
96.053589 223.0 
97.10479 196.0 
103.054756 1394.0 
103.190247 62.0 
103.380402 260.0 
103.470856 251.0 
104.063019 2473.0 
105.045471 1592.0 
105.070946 3603.0 
106.04493 1383.0 
106.071701 552.0 
106.795204 275.0 
107.049706 5897.0 
107.75956 257.0 
108.022614 147.0 
108.056808 3729.0 
108.24395 299.0 
108.321159 137.0 
109.030113 243.0 
109.063126 1017.0 
110.03553 150.0 
110.065521 609.0 
112.418091 232.0 
112.626778 155.0 
113.250977 217.0 
115.055191 2091.0 
115.933716 168.0 
116.064598 1915.0 
117.070198 4763.0 
117.455711 253.0 
118.041656 524.0 
118.079308 337.0 
118.189384 173.0 
119.02211 175.0 
119.050323 8507.0 
119.08448 1626.0 
120.054138 707.0 
121.017067 497.0 
121.065598 13247.0 
121.216484 323.0 
121.354286 81.0 
121.961838 193.0 
122.026474 297.0 
122.069138 1590.0 
122.251099 165.0 
123.045723 5800.0 
123.080856 799.0 
124.052025 3315.0 
125.054848 541.0 
125.343796 101.0 
128.061432 283.0 
128.878616 209.0 
129.068741 679.0 
129.962463 62.0 
130.072891 477.0 
131.010574 140.0 
131.051163 3621.0 
131.093292 390.0 
132.028519 150.0 
132.057526 6804.0 
132.974014 149.0 
133.034073 140.0 
133.064835 6929.0 
133.100555 291.0 
134.073837 1532.0 
135.00145 186.0 
135.045792 4049.0 
135.080338 1047.0 
135.39444 242.0 
136.052444 21906.0 
136.089066 2321.0 
136.948853 171.0 
137.057922 2996.0 
137.093872 665.0 
138.0327 264.0 
138.068497 24801.0 
138.112762 147.0 
138.13942 86.0 
138.358505 89.0 
139.024384 170.0 
139.075226 4994.0 
139.187347 120.0 
139.203339 200.0 
140.059296 136.0 
140.079788 427.0 
140.282166 177.0 
141.074097 350.0 
141.501144 249.0 
142.02179 264.0 
142.079575 2182.0 
143.045044 272.0 
143.0569 284.0 
144.053772 208.0 
144.711166 234.0 
145.066833 1508.0 
145.444046 102.0 
146.036407 3356.0 
146.071625 1243.0 
146.771927 83.0 
146.988846 120.0 
147.044876 9526.0 
147.081436 18198.0 
147.147781 142.0 
147.184601 173.0 
147.206482 195.0 
147.27887 167.0 
147.787552 120.0 
148.04834 759.0 
148.088043 18175.0 
148.869232 133.0 
148.934464 70.0 
149.060699 16389.0 
149.091843 2470.0 
149.222824 153.0 
149.264496 78.0 
149.611786 169.0 
150.066971 1718.0 
150.193756 139.0 
150.353897 173.0 
150.379272 106.0 
150.848557 62.0 
150.994247 154.0 
151.076202 145366.0 
151.109894 764.0 
151.159164 292.0 
151.579742 171.0 
152.014236 88.0 
152.079971 9361.0 
152.606537 265.0 
152.651367 129.0 
153.076843 370.0 
153.309982 172.0 
153.469055 229.0 
154.344955 64.0 
154.367035 70.0 
155.059799 305.0 
156.065262 814.0 
157.066864 351.0 
157.101135 2468.0 
158.041641 253.0 
158.075226 282.0 
158.106583 180.0 
159.056366 156.0 
159.083115 596.0 
159.5439 76.0 
161.023392 153.0 
161.060898 5279.0 
161.09021 172.0 
161.745285 189.0 
162.066376 1160.0 
162.774933 149.0 
162.820511 162.0 
163.03743 866.0 
163.076492 1110.0 
163.87236 225.0 
164.046722 1256.0 
164.083664 40474.0 
165.050522 473.0 
165.08905 3501.0 
165.392242 136.0 
166.029694 185.0 
166.090042 276.0 
166.269257 119.0 
166.378342 90.0 
166.695129 259.0 
168.094345 106.0 
168.839584 63.0 
169.056137 334.0 
170.070023 267.0 
171.078598 309.0 
171.502167 70.0 
173.095047 1137.0 
174.097855 175.0 
175.047958 280.0 
175.073547 664.0 
177.059525 261.0 
177.089035 486.0 
177.287933 126.0 
177.862198 66.0 
178.063538 534.0 
178.10321 312.0 
178.194565 116.0 
178.374176 88.0 
178.691895 137.0 
178.917892 189.0 
178.987564 299.0 
179.072098 9362.0 
179.107834 130275.0 
179.167877 153.0 
179.404297 266.0 
179.770035 142.0 
179.99852 139.0 
180.040726 109.0 
180.076324 693.0 
180.111389 9470.0 
180.157074 88.0 
180.373322 116.0 
180.703796 128.0 
181.044891 77.0 
181.093719 198.0 
181.116165 289.0 
181.212631 63.0 
181.441483 132.0 
181.56871 134.0 
182.270782 68.0 
183.074203 162.0 
184.053101 207.0 
185.05983 125.0 
185.097351 491.0 
186.047272 207.0 
187.07869 159.0 
188.084808 440.0 
189.05513 389.0 
189.097885 224.0 
190.095215 230.0 
191.087021 183.0 
192.082336 209.0 
193.062607 143.0 
193.086639 112.0 
194.073257 161.0 
195.096573 196.0 
196.059875 206.0 
198.061096 188.0 
200.07869 250.0 
201.092819 1060.0 
203.06514 159.0 
204.074738 1034.0 
205.079468 107.0 
207.085159 130.0 
211.072403 739.0 
212.558563 76.0 
214.062302 140.0 
215.071609 149.0 
217.12056 137.0 
218.068008 61.0 
219.103683 775.0 
220.081299 143.0 
220.122787 141.0 
221.103317 105.0 
222.06395 172.0 
222.098709 199.0 
224.085281 489.0 
227.085083 191.0 
228.912872 118.0 
228.973877 142.0 
229.003601 298.0 
229.086975 10000.0 
229.788559 92.0 
229.873856 61.0 
230.08345 152.0 
232.217026 111.0 
233.065308 146.0 
233.096283 301.0 
234.064224 204.0 
235.073334 166.0 
236.081848 167.0 
237.882584 137.0 
239.070343 223.0 
240.07756 240.0 
245.091904 245.0 
248.08493 198.0 
250.063171 236.0 
250.095856 171.0 
251.055466 176.0 
253.078003 181.0 
254.09465 336.0 
257.094238 315.0 
262.083771 214.0 
263.078125 138.0 
263.107025 88.0 
265.092041 140.0 
265.122437 537.0 
266.090576 306.0 
267.087799 242.0 
268.119598 311.0 
270.122986 237.0 
271.047638 222.0 
273.116638 264.0 
274.087769 187.0 
275.054077 104.0 
276.063995 179.0 
277.006836 198.0 
277.12207 233.0 
279.136932 141.0 
280.097961 199.0 
282.115997 179.0 
283.136414 118.0 
291.096832 452.0 
292.10025 181.0 
292.709503 121.0 
293.068085 225.0 
293.118408 449.0 
294.125061 127.0 
295.087341 328.0 
295.132446 355.0 
296.132141 317.0 
298.113037 243.0 
306.114349 603.0 
307.125092 212.0 
308.106964 73.0 
309.115387 222.0 
309.150238 157.0 
311.080933 324.0 
316.106262 128.0 
321.775818 118.0 
323.125366 654.0 
324.138885 392.0 
324.818054 165.0 
326.14563 98.0 
328.129547 274.0 
328.160065 228.0 
339.15741 925.0 
340.146088 104.0 
341.024902 150.0 
341.136566 528.0 
342.141632 153.0 
357.14035 125.0 
357.188232 404.0 
444.95636 143.0 
1361.665527 294.0 
1581.330322 103.0 
1656.390381 145.0 
1680.874268 137.0 
1815.3396 291.0 
1822.397339 276.0 
1872.247925 263.0 
1895.077393 331.0 
1954.972046 303.0 
1974.8479 75.0 
1989.761841 273.0 
1993.893921 145.0 
1998.320679 245.0 
END IONS

BEGIN IONS
TITLE=Scan Number: 381
PEPMASS=370.14899
CHARGE=1+
MSLEVEL=2
FILENAME=A10_RA10_01_2893.mzXML
INSTRUMENT=ion trap
SCANS=381
SMILES=CC(O)C(O)(C(C)O)C(=O)OCC1=CC=CC=C1NC(=O)CCC(O)=O
INCHIKEY=DNDACVRMGDHDQY-UHFFFAOYSA-N
70.111038 128.0 
72.701645 299.0 
73.010468 172.0 
73.028793 6312.0 
73.082153 293.0 
73.320816 241.0 
73.507866 216.0 
75.008408 230.0 
75.577385 134.0 
76.41198 196.0 
77.035179 181.0 
77.279449 246.0 
78.035149 160.0 
79.056526 1084.0 
79.508064 244.0 
80.127029 292.0 
80.54982 125.0 
81.638618 415.0 
83.025864 86.0 
83.581772 263.0 
85.386391 231.0 
90.937294 353.0 
91.052498 606.0 
93.039803 326.0 
95.134575 172.0 
100.875183 196.0 
100.992828 468.0 
101.022629 26896.0 
102.025917 1298.0 
105.054909 569.0 
105.068146 473.0 
105.924477 154.0 
105.986038 329.0 
106.036659 1035.0 
106.064682 85646.0 
106.100395 361.0 
106.193687 73.0 
106.921875 290.0 
107.042252 88.0 
107.06768 6243.0 
108.513824 280.0 
109.650246 218.0 
109.703659 258.0 
111.485252 258.0 
113.167938 122.0 
114.720322 90.0 
114.984436 89.0 
115.05545 5272.0 
115.358986 291.0 
116.049911 1871.0 
117.057457 5092.0 
117.292839 155.0 
117.85936 287.0 
118.064804 43266.0 
118.099548 130.0 
118.890976 209.0 
119.035271 537.0 
119.067673 3307.0 
119.26532 72.0 
120.097115 95.0 
123.084435 208.0 
124.818047 278.0 
127.002068 133.0 
128.051193 770.0 
130.064606 847.0 
130.295593 91.0 
131.019257 74.0 
131.073578 876.0 
131.818527 151.0 
131.949844 157.0 
132.019974 175.0 
132.04364 12482.0 
132.080231 63197.0 
132.114548 321.0 
132.186615 89.0 
132.494263 278.0 
132.661285 85.0 
132.98999 264.0 
133.048615 243.0 
133.083145 7132.0 
133.93869 288.0 
134.044327 131.0 
134.064117 349.0 
134.088791 197.0 
134.27179 84.0 
134.76506 70.0 
135.082443 73.0 
135.130661 143.0 
140.049179 1992.0 
141.677811 167.0 
142.063782 23164.0 
142.115341 66.0 
142.574158 408.0 
143.018066 185.0 
143.065247 4673.0 
144.079514 762.0 
145.050598 392.0 
145.961151 166.0 
146.060318 1703.0 
147.651337 171.0 
147.862946 128.0 
148.356506 158.0 
149.519485 90.0 
150.339035 240.0 
150.709641 95.0 
152.523666 139.0 
155.169769 218.0 
155.87207 96.0 
156.222336 278.0 
157.82019 137.0 
158.058136 1072.0 
158.523148 213.0 
158.643814 108.0 
159.066864 5651.0 
160.07518 66366.0 
160.135391 90.0 
160.317429 121.0 
160.539612 159.0 
160.649521 89.0 
161.078125 7210.0 
161.294373 83.0 
161.355331 122.0 
161.52478 115.0 
161.712875 117.0 
161.804794 125.0 
162.389816 231.0 
162.414276 137.0 
170.05925 6292.0 
171.059769 844.0 
172.216095 84.0 
174.453003 191.0 
176.068497 154.0 
179.928543 154.0 
181.898605 197.0 
184.109634 224.0 
185.309952 183.0 
185.829697 215.0 
185.968414 222.0 
186.054764 222.0 
186.845779 153.0 
187.412033 90.0 
187.535614 175.0 
187.704758 136.0 
187.904816 217.0 
187.948029 216.0 
187.976486 349.0 
188.069595 196642.0 
188.270218 67.0 
188.480743 87.0 
188.552536 101.0 
188.878906 271.0 
188.925003 126.0 
189.073273 18911.0 
189.233246 73.0 
189.313187 132.0 
189.461487 146.0 
189.595123 221.0 
190.078629 805.0 
190.280548 58.0 
190.377289 148.0 
190.415848 83.0 
190.608002 153.0 
190.831375 90.0 
191.140305 112.0 
191.361618 62.0 
192.372971 222.0 
193.433441 135.0 
197.887939 106.0 
198.021362 275.0 
199.717468 75.0 
203.893936 191.0 
204.265747 145.0 
204.715073 87.0 
204.861908 166.0 
205.327713 175.0 
205.76329 74.0 
205.801987 133.0 
205.926483 143.0 
206.080093 188060.0 
206.171143 166.0 
206.216507 133.0 
206.28833 178.0 
206.381195 80.0 
206.471375 116.0 
206.529739 91.0 
206.549866 112.0 
206.643417 115.0 
207.083725 17354.0 
207.265198 87.0 
207.520676 237.0 
208.08461 220.0 
208.371445 71.0 
208.397629 138.0 
208.559784 87.0 
208.613907 287.0 
208.764359 169.0 
210.052139 104.0 
210.302277 174.0 
220.561172 95.0 
223.328415 177.0 
293.105988 79.0 
842.608948 125.0 
1322.892944 221.0 
1380.562012 186.0 
1388.611328 88.0 
1460.997925 233.0 
1623.290283 247.0 
1681.67334 203.0 
1716.736328 134.0 
1731.44458 72.0 
1778.03894 192.0 
1844.995239 372.0 
1905.751587 186.0 
1955.939331 118.0 
1962.647949 89.0 
1972.134033 216.0 
END IONS

BEGIN IONS
TITLE=Scan Number: 382
PEPMASS=387.17599
CHARGE=1+
MSLEVEL=2
FILENAME=A10_RA10_01_2893.mzXML
INSTRUMENT=ion trap
SCANS=382
SMILES=CC(O)C(O)(C(C)O)C(=O)OCC1=CC=CC=C1NC(=O)CCC(O)=O
INCHIKEY=DNDACVRMGDHDQY-UHFFFAOYSA-N
69.942039 343.0 
70.12516 243.0 
70.679482 192.0 
71.026917 137.0 
71.051086 262.0 
73.695572 331.0 
75.042969 337.0 
79.054581 607.0 
80.063339 487.0 
81.035347 184.0 
81.069717 161.0 
82.894379 304.0 
85.062584 179.0 
86.408844 301.0 
87.019592 299.0 
87.081009 241.0 
89.040375 137.0 
89.058922 409.0 
89.585846 126.0 
90.444649 172.0 
91.054184 7748.0 
92.059212 1068.0 
92.134262 122.0 
93.031792 604.0 
93.072098 498.0 
93.127563 71.0 
94.036209 1004.0 
94.755714 227.0 
95.050255 1446.0 
95.080368 294.0 
95.313698 229.0 
97.451569 188.0 
101.060837 224.0 
102.046471 150.0 
103.032837 233.0 
103.053665 1844.0 
103.47171 159.0 
104.061493 811.0 
104.612434 297.0 
104.906693 192.0 
104.991013 215.0 
105.009956 216.0 
105.045052 1426.0 
105.070053 3161.0 
105.866516 474.0 
106.040428 128.0 
106.07756 234.0 
106.547852 124.0 
106.801079 206.0 
107.01387 135.0 
107.048943 4346.0 
107.086761 659.0 
108.016014 117.0 
108.055717 1280.0 
108.520294 188.0 
108.60408 204.0 
109.063454 1514.0 
110.036858 702.0 
110.073158 185.0 
110.810753 116.0 
110.954903 194.0 
111.080574 154.0 
112.169807 318.0 
113.077774 81.0 
114.915253 284.0 
115.053123 1205.0 
116.06321 917.0 
116.628418 120.0 
117.069115 1576.0 
117.169121 174.0 
117.345634 168.0 
117.635849 276.0 
118.038147 452.0 
118.074455 332.0 
119.048805 17038.0 
119.083427 841.0 
119.719688 131.0 
120.015541 73.0 
120.057175 771.0 
120.986671 232.0 
121.026688 395.0 
121.064575 8326.0 
122.038841 787.0 
122.069832 966.0 
122.706879 180.0 
123.044189 4052.0 
123.081207 2576.0 
124.050842 902.0 
124.08461 558.0 
124.466293 228.0 
125.062729 2331.0 
125.37088 361.0 
126.252907 140.0 
126.290115 187.0 
127.843979 105.0 
128.06076 151.0 
130.043442 146.0 
130.83255 204.0 
131.010071 376.0 
131.048843 3269.0 
131.086105 388.0 
132.036667 194.0 
132.057526 1339.0 
132.688034 294.0 
133.028793 4466.0 
133.064835 5862.0 
133.246307 292.0 
134.036392 368.0 
134.072006 2998.0 
134.70192 262.0 
135.044312 1581.0 
135.07991 12826.0 
135.429535 164.0 
135.522858 204.0 
136.051666 7811.0 
136.086578 1457.0 
136.76474 262.0 
137.010529 230.0 
137.05722 4944.0 
137.090897 239.0 
137.224899 123.0 
137.517014 240.0 
138.031601 499.0 
138.06604 4761.0 
138.102798 208.0 
139.07634 2783.0 
139.393829 82.0 
140.080246 182.0 
142.087051 280.0 
143.052765 629.0 
144.053574 415.0 
144.922699 256.0 
145.069992 2209.0 
146.035477 4298.0 
146.072021 6154.0 
146.663681 216.0 
146.783783 241.0 
147.043976 34571.0 
147.079025 11043.0 
147.120209 96.0 
147.921219 209.0 
148.049744 8124.0 
148.086426 3902.0 
148.912766 98.0 
149.020874 550.0 
149.059067 8830.0 
149.096436 3088.0 
149.971909 113.0 
150.0298 170.0 
150.064056 463.0 
150.100769 174.0 
150.948898 97.0 
151.037994 2639.0 
151.075073 22650.0 
151.109039 180.0 
152.047653 590.0 
152.078568 3957.0 
153.054535 21289.0 
153.090332 777.0 
154.061722 5295.0 
154.626511 199.0 
155.069275 1323.0 
155.757553 120.0 
156.065536 402.0 
158.070358 884.0 
158.897385 143.0 
159.038269 443.0 
159.078293 538.0 
159.895554 223.0 
160.08931 153.0 
160.369324 102.0 
160.490692 95.0 
161.032715 554.0 
161.059937 17195.0 
161.334778 137.0 
161.790802 109.0 
161.880249 146.0 
162.066849 14202.0 
162.609222 97.0 
162.652664 136.0 
162.786819 151.0 
162.819427 296.0 
162.912018 325.0 
163.038544 523.0 
163.074326 27905.0 
163.114655 275.0 
163.151001 115.0 
163.447449 107.0 
164.047592 1980.0 
164.080139 5814.0 
164.890335 112.0 
165.054825 30855.0 
165.090851 2622.0 
165.994888 291.0 
166.061844 17472.0 
166.098755 730.0 
166.276108 79.0 
166.547333 72.0 
167.067444 2151.0 
167.108719 481.0 
167.275589 127.0 
167.955658 199.0 
168.026703 434.0 
168.078064 33042.0 
168.154053 186.0 
169.085464 4062.0 
169.330841 218.0 
170.081635 729.0 
170.45874 98.0 
170.642853 132.0 
170.958832 119.0 
172.088898 236.0 
172.85556 306.0 
173.060944 421.0 
174.061661 392.0 
174.10228 179.0 
174.179916 290.0 
175.037613 147.0 
175.079147 557.0 
176.053329 133.0 
176.084808 2039.0 
176.294769 131.0 
177.030609 79.0 
177.059784 342.0 
177.090332 15415.0 
177.41713 118.0 
177.675064 289.0 
177.830658 87.0 
177.904648 172.0 
178.024567 205.0 
178.098541 78275.0 
178.317703 95.0 
178.388046 240.0 
178.449844 141.0 
178.846466 192.0 
178.943726 188.0 
178.996826 301.0 
179.070099 62246.0 
179.104553 10609.0 
179.164413 287.0 
179.709747 129.0 
180.073334 6596.0 
180.263351 114.0 
180.442856 206.0 
180.629181 121.0 
180.66748 107.0 
180.718994 95.0 
181.024612 430.0 
181.085602 82389.0 
181.148575 82.0 
181.273468 155.0 
181.614456 187.0 
181.693527 175.0 
182.088455 6101.0 
182.14502 105.0 
182.444778 328.0 
182.621735 104.0 
183.390976 279.0 
183.464813 91.0 
183.554794 104.0 
184.220551 118.0 
187.079926 217.0 
187.366531 143.0 
188.083267 530.0 
188.582565 139.0 
188.962692 84.0 
189.059708 134.0 
189.090897 140.0 
189.645813 182.0 
189.862411 81.0 
190.08667 92.0 
190.928009 115.0 
191.110596 150.0 
193.0298 122.0 
193.083206 941.0 
193.124573 359.0 
193.17041 214.0 
194.016525 600.0 
194.04364 771.0 
194.093307 77274.0 
194.187866 98.0 
194.239639 381.0 
194.277039 183.0 
194.402893 179.0 
194.619629 86.0 
194.81102 92.0 
195.096054 6903.0 
195.196075 140.0 
196.612961 212.0 
197.045609 402.0 
200.830261 171.0 
201.053741 294.0 
202.076141 119.0 
203.066925 167.0 
203.103928 970.0 
205.123505 105.0 
207.941208 86.0 
208.000519 178.0 
208.086121 111.0 
208.113785 354.0 
208.201828 156.0 
208.315445 98.0 
208.439011 236.0 
208.502136 216.0 
208.549408 160.0 
208.617081 233.0 
208.727539 241.0 
208.891373 183.0 
209.007706 354.0 
209.116959 304286.0 
209.187042 131.0 
209.294052 160.0 
209.400757 324.0 
209.474228 192.0 
209.609177 117.0 
209.93074 237.0 
209.991379 114.0 
210.065231 284.0 
210.120377 24299.0 
210.396729 117.0 
210.595398 96.0 
211.122711 601.0 
211.473862 84.0 
211.559753 212.0 
211.729431 149.0 
211.808273 130.0 
211.87825 125.0 
211.983383 143.0 
212.011032 109.0 
212.763626 96.0 
213.055389 130.0 
216.05896 267.0 
221.113266 95.0 
223.09166 243.0 
224.591919 91.0 
226.308456 102.0 
231.09964 473.0 
235.070404 264.0 
241.048874 431.0 
243.096024 187.0 
248.080994 177.0 
249.109146 4803.0 
250.1138 371.0 
251.060791 92.0 
252.07489 147.0 
256.111237 223.0 
257.073883 366.0 
263.125458 175.0 
265.086548 136.0 
266.130341 169.0 
267.090302 278.0 
267.124664 180.0 
269.043182 908.0 
271.096405 121.0 
278.085632 149.0 
278.12735 196.0 
281.108063 182.0 
283.140472 209.0 
285.08139 131.0 
287.125763 1030.0 
288.128632 383.0 
291.120667 108.0 
295.133331 403.0 
297.103943 190.0 
304.114258 107.0 
306.116669 161.0 
306.14386 419.0 
308.105652 114.0 
310.159332 101.0 
311.132843 139.0 
312.137543 494.0 
313.147491 171.0 
321.116699 184.0 
324.131134 155.0 
326.128998 152.0 
327.12561 678.0 
337.135559 178.0 
338.150879 104.0 
339.120056 148.0 
341.167542 163.0 
355.145721 89.0 
369.036102 172.0 
369.130249 117.0 
369.16629 183.0 
387.186615 445.0 
404.989258 98.0 
595.206299 113.0 
635.298706 119.0 
665.83429 161.0 
1177.389893 87.0 
1280.190796 110.0 
1352.165405 268.0 
1531.284424 288.0 
1546.594238 187.0 
1599.676025 281.0 
1617.576294 210.0 
1620.205566 145.0 
1645.28064 303.0 
1742.852417 174.0 
1759.93103 204.0 
1768.36792 202.0 
1842.397095 110.0 
1850.456177 261.0 
1852.647583 103.0 
1863.093262 149.0 
1864.318604 236.0 
1880.947876 249.0 
1889.192261 204.0 
1910.416382 186.0 
1946.125366 294.0 
END IONS

BEGIN IONS
TITLE=Scan Number: 384
PEPMASS=369.16901
CHARGE=1+
MSLEVEL=2
FILENAME=A10_RA10_01_2893.mzXML
INSTRUMENT=ion trap
SCANS=384
SMILES=COC1=CC(CC(C)OC2=C(OC)C=C(\C=C\C=O)C=C2)=CC(OC)=C1OC
INCHIKEY=SFBXSVRVKLGYSH-VOTSOKGWSA-N
74.932274 157.0 
80.026794 182.0 
91.055611 259.0 
106.065712 959.0 
117.061958 213.0 
118.064468 6391.0 
119.065727 145.0 
121.621132 130.0 
124.992004 120.0 
128.046951 183.0 
130.065109 218.0 
131.068298 124.0 
132.045212 1220.0 
132.081604 5902.0 
133.084 395.0 
140.04747 153.0 
142.03035 131.0 
142.066727 2011.0 
143.075073 629.0 
152.993301 156.0 
160.076294 8705.0 
161.077789 613.0 
163.038071 176.0 
170.060211 524.0 
170.478561 237.0 
173.065842 165.0 
188.032547 575.0 
188.070343 48021.0 
188.112488 281.0 
188.203934 158.0 
189.073914 3709.0 
198.109589 153.0 
206.083725 947.0 
206.511658 87.0 
214.948334 148.0 
242.109283 186.0 
260.08194 109.0 
453.93512 95.0 
1105.928589 146.0 
1526.682739 154.0 
END IONS

BEGIN IONS
TITLE=Scan Number: 385
PEPMASS=435.12799
CHARGE=1+
MSLEVEL=2
FILENAME=A10_RA10_01_2893.mzXML
INSTRUMENT=ion trap
SCANS=385
SMILES=OCC1OC(C(O)C(O)C1O)C2=C(O)C=C3OC(CC(=O)C3=C2O)C4=CC=C(O)C=C4
INCHIKEY=QKPKGDDHOGIEOO-UHFFFAOYSA-N
70.183105 274.0 
72.737411 203.0 
74.031792 190.0 
75.016441 329.0 
75.042526 162.0 
75.355988 202.0 
79.018661 234.0 
79.053123 184.0 
80.2714 184.0 
81.032089 493.0 
82.783066 237.0 
83.014877 235.0 
85.02903 5230.0 
85.343376 218.0 
88.498764 288.0 
88.955299 152.0 
91.045456 373.0 
92.056488 132.0 
93.014839 196.0 
93.032585 297.0 
94.168045 194.0 
95.048958 668.0 
96.05085 179.0 
97.028008 1238.0 
98.033531 174.0 
98.327187 208.0 
102.619438 286.0 
103.038712 201.0 
104.529991 264.0 
105.028481 504.0 
106.484695 316.0 
107.012405 719.0 
107.051392 1050.0 
108.019318 149.0 
108.049332 147.0 
109.027786 1154.0 
109.062187 152.0 
109.889122 143.0 
110.03064 336.0 
111.004189 461.0 
111.044769 467.0 
115.042542 163.0 
117.02861 153.0 
117.921158 181.0 
119.047623 1967.0 
121.027824 5723.0 
121.06675 1804.0 
122.032402 174.0 
122.06189 143.0 
123.008972 565.0 
123.045509 3308.0 
124.044746 149.0 
125.023254 1071.0 
125.043922 244.0 
125.06295 206.0 
127.040215 350.0 
129.019363 140.0 
131.052261 326.0 
133.027573 379.0 
135.003571 201.0 
135.044022 2080.0 
135.894363 283.0 
136.048859 415.0 
136.999939 144.0 
137.023438 912.0 
137.062607 170.0 
137.192444 193.0 
138.031204 278.0 
138.065933 163.0 
139.039703 804.0 
140.559677 75.0 
141.015732 415.0 
141.056305 448.0 
145.02533 535.0 
145.965424 296.0 
147.045395 6973.0 
148.048065 444.0 
149.022583 3157.0 
149.061081 339.0 
150.067291 197.0 
151.000259 205.0 
151.038803 1062.0 
152.040161 579.0 
153.019058 6923.0 
153.905746 400.0 
154.022537 675.0 
155.049561 180.0 
157.031219 146.0 
160.860123 152.0 
161.022827 118.0 
161.480179 105.0 
162.029053 152.0 
162.664597 333.0 
163.041306 3182.0 
164.252502 151.0 
164.814194 146.0 
165.018646 26180.0 
165.054794 931.0 
165.196503 229.0 
165.818481 197.0 
166.023041 1655.0 
167.019287 159.0 
167.203049 120.0 
167.444778 179.0 
171.032104 2018.0 
171.079025 206.0 
172.026062 208.0 
173.021973 300.0 
173.056122 178.0 
175.041626 662.0 
176.082001 211.0 
176.988647 328.0 
177.020279 5817.0 
177.057251 872.0 
177.999069 152.0 
178.021362 268.0 
178.766739 141.0 
178.995651 93.0 
179.033981 1425.0 
180.002625 159.0 
180.055267 153.0 
180.520218 94.0 
181.009354 175.0 
181.050964 277.0 
182.655609 140.0 
182.987061 313.0 
183.028549 5486.0 
183.112854 110.0 
183.331558 153.0 
184.028336 119.0 
185.021912 215.0 
185.538849 114.0 
187.037857 1211.0 
188.043503 142.0 
189.015518 1552.0 
189.048889 245.0 
190.031387 341.0 
190.12973 210.0 
190.999786 1344.0 
191.034882 11872.0 
192.040192 802.0 
193.01091 711.0 
193.057648 267.0 
195.028351 36559.0 
195.072601 100.0 
195.217361 113.0 
195.295807 145.0 
196.032394 3971.0 
196.461411 81.0 
197.002457 95.0 
197.056091 226.0 
197.101791 192.0 
197.495163 240.0 
198.582962 102.0 
198.663208 107.0 
201.02002 532.0 
201.696381 234.0 
201.731155 220.0 
202.024933 207.0 
202.356125 70.0 
203.034882 2737.0 
205.023499 246.0 
205.050659 2642.0 
205.439438 299.0 
206.012726 403.0 
206.051178 289.0 
206.991898 101.0 
207.029144 1934.0 
209.008255 463.0 
209.043228 411.0 
213.040054 296.0 
214.042572 178.0 
215.033905 1587.0 
215.077759 260.0 
216.042709 642.0 
217.015656 486.0 
217.054825 336.0 
218.022476 133.0 
219.029114 16373.0 
220.031509 487.0 
221.04184 346.0 
223.023819 289.0 
223.077469 234.0 
225.041595 832.0 
227.071442 226.0 
229.871414 92.0 
231.028549 7382.0 
231.99173 147.0 
232.035294 564.0 
233.04425 850.0 
234.047058 249.0 
235.024734 516.0 
237.040176 820.0 
238.042801 102.0 
241.048599 153.0 
243.030045 2623.0 
244.032043 160.0 
245.699951 203.0 
247.070236 175.0 
248.623199 158.0 
249.03891 5550.0 
250.045685 271.0 
251.056503 530.0 
255.031677 108.0 
255.161636 143.0 
255.271301 226.0 
257.046997 151.0 
257.511902 174.0 
261.039612 10808.0 
262.04126 853.0 
262.334839 174.0 
263.047211 83.0 
269.061096 156.0 
273.076294 4427.0 
274.079742 667.0 
276.362335 215.0 
279.050598 7552.0 
279.24054 244.0 
280.043793 291.0 
281.089539 257.0 
283.065979 122.0 
285.076141 11252.0 
286.078796 1633.0 
287.074371 163.0 
287.494995 138.0 
294.063324 124.0 
295.057281 192.0 
297.071747 5283.0 
298.035156 173.0 
298.075958 861.0 
299.062134 249.0 
306.309418 125.0 
309.074371 508.0 
310.076141 118.0 
311.059326 169.0 
313.065399 206.0 
314.080383 118.0 
315.088806 7795.0 
316.046417 163.0 
316.08786 1151.0 
321.082336 132.0 
324.10025 130.0 
327.10083 332.0 
329.128296 108.0 
334.074188 110.0 
335.088837 124.0 
339.009521 174.0 
339.08728 6575.0 
339.285217 207.0 
339.776794 93.0 
340.035217 131.0 
340.089233 867.0 
341.092377 202.0 
351.036499 336.0 
351.086578 3354.0 
352.098358 811.0 
353.105774 129.0 
355.008057 108.0 
357.076141 374.0 
363.086517 1100.0 
364.083649 199.0 
368.547241 148.0 
369.096375 3630.0 
370.029266 161.0 
370.100708 598.0 
378.610413 170.0 
381.044769 157.0 
381.098999 2118.0 
382.100586 746.0 
385.80484 112.0 
395.026093 172.0 
398.990845 200.0 
399.10907 5301.0 
400.05014 141.0 
400.115051 733.0 
417.122192 2745.0 
418.059937 255.0 
418.120087 328.0 
434.465118 201.0 
434.990112 145.0 
435.130829 6062.0 
436.136444 1535.0 
439.017029 134.0 
467.292816 83.0 
490.339783 148.0 
873.979187 200.0 
1528.791504 132.0 
1725.65271 186.0 
2001.186401 256.0 
END IONS

BEGIN IONS
TITLE=Scan Number: 386
PEPMASS=851.23901
CHARGE=1+
MSLEVEL=2
FILENAME=A10_RA10_01_2893.mzXML
INSTRUMENT=ion trap
SCANS=386
SMILES=OCC1OC(C(O)C(O)C1O)C2(O)C3=C(C(=O)C4=C2C=C(CO)C=C4O)C(O)=C(C=C3)C6(C5OC(CO)C(O)C(O)C5O)C7=CC=CC(O)=C7C(=O)C8=C6C=C(CO)C=C8O
INCHIKEY=XVYHBBAKYWDFRE-UHFFFAOYSA-N
73.026321 383.0 
85.029259 1729.0 
86.028221 248.0 
87.04023 87.0 
92.032639 146.0 
97.027641 1658.0 
99.04113 278.0 
106.840416 119.0 
109.027504 559.0 
115.037804 373.0 
121.028198 550.0 
122.212029 262.0 
127.035538 539.0 
134.037048 251.0 
135.042969 232.0 
135.986252 344.0 
139.049316 164.0 
143.034103 142.0 
143.972702 193.0 
145.047455 389.0 
147.04187 165.0 
151.034973 206.0 
153.985596 215.0 
159.291031 290.0 
161.026932 207.0 
175.038925 228.0 
181.682053 140.0 
183.044418 94.0 
187.039337 128.0 
198.069626 234.0 
200.063553 179.0 
203.080597 152.0 
204.946136 164.0 
205.025436 200.0 
209.054688 652.0 
210.067734 273.0 
211.067291 486.0 
225.050369 852.0 
225.089264 88.0 
226.056824 604.0 
227.061981 475.0 
228.070663 151.0 
229.053421 450.0 
233.035233 124.0 
234.043152 183.0 
235.077606 194.0 
238.063538 273.0 
239.068542 6353.0 
240.075699 1801.0 
241.023315 485.0 
241.047684 664.0 
241.080017 1283.0 
242.051132 335.0 
242.098114 238.0 
244.961792 192.0 
245.040863 502.0 
247.072189 627.0 
248.075058 201.0 
249.053238 380.0 
251.03244 342.0 
251.073242 394.0 
253.054214 716.0 
254.050644 533.0 
255.060349 1203.0 
256.07309 316.0 
257.035522 469.0 
257.082031 217.0 
258.033661 228.0 
259.063202 144.0 
261.087585 194.0 
263.069489 1533.0 
264.071838 343.0 
265.048798 214.0 
265.078644 321.0 
267.061096 811.0 
268.019714 272.0 
268.068359 86.0 
268.999084 273.0 
269.08017 528.0 
270.051422 156.0 
271.05954 963.0 
272.063324 2481.0 
273.071838 618.0 
275.068329 771.0 
277.077301 583.0 
278.054016 350.0 
278.088593 187.0 
279.060028 568.0 
279.904694 94.0 
280.06311 248.0 
281.079987 654.0 
281.488586 148.0 
282.077667 172.0 
283.034332 161.0 
283.061066 792.0 
284.063904 886.0 
285.092957 315.0 
287.073303 377.0 
290.04837 90.0 
291.062103 165.0 
293.073853 623.0 
295.057098 330.0 
296.054443 136.0 
297.078369 190.0 
301.084412 123.0 
302.159302 124.0 
303.055725 105.0 
305.0802 172.0 
307.054504 316.0 
308.059418 247.0 
308.096619 138.0 
308.289551 101.0 
309.07254 238.0 
315.058411 84.0 
316.944641 162.0 
317.075226 226.0 
319.057037 283.0 
319.096039 137.0 
320.088043 148.0 
325.070465 457.0 
326.077362 115.0 
329.080902 247.0 
333.072052 99.0 
335.084015 332.0 
339.092041 144.0 
341.095764 125.0 
345.07959 446.0 
346.078156 155.0 
347.088531 699.0 
348.094055 106.0 
350.087341 178.0 
350.592804 165.0 
351.078064 89.0 
353.106995 201.0 
358.533661 218.0 
363.082642 779.0 
365.098602 488.0 
365.177155 277.0 
367.087921 110.0 
371.107117 186.0 
373.128387 140.0 
379.112366 291.0 
381.094666 570.0 
382.103821 181.0 
383.112488 326.0 
383.350189 293.0 
384.113922 184.0 
385.075256 125.0 
386.067078 84.0 
387.44162 226.0 
391.143433 187.0 
393.15863 213.0 
393.773285 173.0 
396.618835 259.0 
399.101501 194.0 
400.115173 143.0 
401.057312 298.0 
401.124786 760.0 
402.061188 298.0 
403.088318 222.0 
404.102386 111.0 
405.338806 131.0 
406.102997 237.0 
407.090271 138.0 
411.093536 146.0 
412.073822 166.0 
412.570831 149.0 
413.124603 78.0 
415.082977 164.0 
417.105286 349.0 
417.198669 227.0 
419.133514 351.0 
422.086395 160.0 
423.075165 174.0 
424.07901 121.0 
425.110504 134.0 
427.095978 133.0 
428.96933 135.0 
429.098846 444.0 
430.111847 415.0 
431.107208 178.0 
432.095367 332.0 
433.061707 104.0 
433.112305 688.0 
434.097015 112.0 
435.127502 608.0 
436.130219 126.0 
437.072937 151.0 
437.117432 270.0 
437.674316 293.0 
439.088715 112.0 
440.078339 181.0 
443.124634 117.0 
444.112091 229.0 
444.95401 174.0 
445.036774 718.0 
445.107025 3375.0 
446.106354 1500.0 
447.077576 114.0 
447.119843 942.0 
448.085999 99.0 
451.101959 173.0 
451.740082 154.0 
455.083527 141.0 
457.109558 1084.0 
458.105133 585.0 
459.002106 132.0 
459.086975 544.0 
459.148651 277.0 
459.80307 160.0 
460.090271 749.0 
461.020264 239.0 
461.096527 1103.0 
462.101349 1259.0 
462.915894 189.0 
462.990204 102.0 
463.11084 2558.0 
463.200317 124.0 
463.977783 154.0 
464.034943 166.0 
464.086212 312.0 
464.111664 370.0 
464.289337 104.0 
464.687653 131.0 
465.123444 305.0 
467.106079 488.0 
468.075104 328.0 
469.112976 630.0 
470.112701 94.0 
471.671875 234.0 
472.060272 87.0 
472.095612 212.0 
472.747803 190.0 
473.030426 490.0 
473.099304 6483.0 
473.230988 166.0 
474.097717 2158.0 
475.117737 3374.0 
476.078064 1547.0 
476.971436 214.0 
477.091309 1498.0 
477.968506 219.0 
478.106934 1053.0 
479.048492 207.0 
479.106689 690.0 
479.362854 238.0 
480.119385 572.0 
481.121094 2531.0 
482.136566 196.0 
483.893036 122.0 
485.02951 139.0 
485.103088 1038.0 
486.092224 391.0 
487.110291 690.0 
487.155182 247.0 
487.478424 218.0 
487.689545 167.0 
487.732788 198.0 
487.971313 147.0 
488.080933 450.0 
488.601135 125.0 
488.785461 253.0 
489.096252 1575.0 
490.038605 339.0 
490.102295 3895.0 
490.282654 361.0 
490.926056 290.0 
490.967285 297.0 
491.110199 21657.0 
491.236298 170.0 
491.606964 188.0 
492.114685 9170.0 
493.123108 3109.0 
493.669098 227.0 
494.099304 1818.0 
495.107086 194.0 
496.111694 863.0 
497.115021 670.0 
499.117584 190.0 
500.071045 117.0 
500.123596 153.0 
501.086945 520.0 
502.104187 1146.0 
502.190277 218.0 
502.814728 201.0 
503.107971 4288.0 
503.975189 156.0 
504.030365 307.0 
504.117188 1539.0 
504.986145 141.0 
505.071747 173.0 
505.129181 926.0 
506.091217 522.0 
506.137115 474.0 
507.103333 4506.0 
507.867554 113.0 
508.042542 106.0 
508.111908 3568.0 
508.338654 99.0 
508.507324 112.0 
508.651184 158.0 
508.746948 225.0 
508.892334 278.0 
508.946045 257.0 
509.002838 377.0 
509.12085 43162.0 
509.989868 109.0 
510.031647 171.0 
510.124084 11104.0 
510.273712 135.0 
510.320923 93.0 
511.13269 1981.0 
512.144775 162.0 
512.951233 115.0 
513.091003 538.0 
513.604614 280.0 
514.104004 122.0 
515.11084 1705.0 
515.529175 151.0 
515.987915 175.0 
516.113037 119.0 
516.18811 199.0 
517.13031 548.0 
518.063171 112.0 
518.121277 126.0 
519.102844 2632.0 
520.115173 2429.0 
521.118408 6281.0 
521.350952 286.0 
522.032654 223.0 
522.120178 2740.0 
522.623596 157.0 
522.687134 83.0 
523.072815 117.0 
523.123474 1297.0 
523.42511 119.0 
524.077576 123.0 
524.128723 432.0 
525.10675 737.0 
526.104065 316.0 
526.219299 106.0 
526.972351 253.0 
527.074097 205.0 
527.129639 4444.0 
527.246277 211.0 
528.122375 1230.0 
529.059509 217.0 
529.118835 494.0 
530.138306 88.0 
531.110046 731.0 
531.949707 150.0 
532.100159 177.0 
532.140869 178.0 
533.117188 2079.0 
534.05365 158.0 
534.117004 704.0 
535.107727 212.0 
536.121521 127.0 
537.113708 1066.0 
539.127014 1518.0 
540.134155 446.0 
541.042053 173.0 
541.09436 352.0 
542.115784 400.0 
543.134583 930.0 
544.119202 252.0 
545.056824 151.0 
545.133301 670.0 
546.071594 200.0 
546.119751 599.0 
547.127441 532.0 
548.157898 382.0 
549.063049 288.0 
549.114197 1197.0 
550.124329 319.0 
551.127136 625.0 
552.134094 416.0 
553.360535 83.0 
554.123352 235.0 
554.848206 268.0 
556.120911 101.0 
557.081116 128.0 
558.976624 161.0 
560.158691 169.0 
561.051819 155.0 
561.116577 266.0 
561.765381 209.0 
562.049133 112.0 
562.127319 154.0 
563.117188 1083.0 
563.774414 147.0 
564.132507 716.0 
565.127686 112.0 
567.130066 194.0 
569.106384 169.0 
570.124756 81.0 
571.135254 595.0 
571.193237 307.0 
572.134399 322.0 
573.123352 182.0 
574.135559 156.0 
575.128113 414.0 
576.111877 254.0 
576.74054 100.0 
580.13031 361.0 
583.642578 140.0 
585.129761 122.0 
586.028381 152.0 
587.122131 391.0 
588.132874 171.0 
589.145813 672.0 
591.165955 113.0 
593.114685 313.0 
594.140198 594.0 
597.137085 111.0 
599.131409 589.0 
600.023926 172.0 
600.128418 244.0 
601.143738 487.0 
603.114685 135.0 
604.11261 174.0 
605.004395 218.0 
605.108643 147.0 
607.053467 121.0 
607.149658 784.0 
608.158813 555.0 
609.162781 133.0 
611.129883 318.0 
615.851624 157.0 
617.139893 2253.0 
618.140076 1345.0 
619.16687 305.0 
621.266907 92.0 
621.738953 176.0 
625.021606 139.0 
625.163696 1528.0 
626.060303 274.0 
626.159058 225.0 
628.52478 101.0 
629.133423 103.0 
631.681458 129.0 
635.151001 6374.0 
635.819885 143.0 
636.097717 531.0 
636.152466 2719.0 
637.158997 308.0 
639.142395 221.0 
640.160034 131.0 
641.124084 232.0 
647.158752 347.0 
649.148743 156.0 
651.123352 317.0 
652.148865 452.0 
652.554443 177.0 
652.676025 177.0 
652.972778 244.0 
653.079468 553.0 
653.161743 27444.0 
654.071411 275.0 
654.164734 7314.0 
655.168762 2237.0 
657.369934 86.0 
657.418213 164.0 
659.124573 96.0 
663.126343 241.0 
665.169067 410.0 
667.152344 196.0 
669.143555 310.0 
670.152344 280.0 
671.058655 305.0 
671.169495 18208.0 
671.279907 217.0 
671.630798 159.0 
671.819336 119.0 
672.075134 155.0 
672.176086 5799.0 
672.924316 144.0 
673.183289 919.0 
674.568726 76.0 
675.689087 168.0 
676.292358 123.0 
676.628784 168.0 
677.177002 153.0 
681.148682 155.0 
683.165527 537.0 
684.179626 126.0 
685.17926 326.0 
688.170837 250.0 
688.995117 178.0 
689.080078 358.0 
689.182373 4728.0 
690.139099 118.0 
690.188782 1121.0 
691.185852 114.0 
695.136658 145.0 
695.177124 283.0 
702.146545 160.0 
703.11145 110.0 
707.148682 147.0 
709.95105 118.0 
731.182007 108.0 
733.187012 152.0 
743.17572 197.0 
745.185669 120.0 
750.149109 174.0 
761.044189 95.0 
761.179688 183.0 
762.171753 204.0 
778.036194 136.0 
779.19342 938.0 
780.101746 175.0 
780.179443 97.0 
797.210938 1475.0 
798.142273 157.0 
798.193909 226.0 
799.210327 324.0 
803.249695 205.0 
807.988098 197.0 
815.139221 456.0 
815.214355 3892.0 
816.07074 74.0 
816.209961 1730.0 
817.21875 486.0 
833.10376 155.0 
833.226868 3224.0 
834.037537 253.0 
834.224854 1251.0 
835.230774 290.0 
851.217651 495.0 
852.250793 129.0 
985.070435 93.0 
1082.491577 181.0 
END IONS

BEGIN IONS
TITLE=Scan Number: 387
PEPMASS=868.26599
CHARGE=1+
MSLEVEL=2
FILENAME=A10_RA10_01_2893.mzXML
INSTRUMENT=ion trap
SCANS=387
SMILES=OCC1OC(C(O)C(O)C1O)C2(O)C3=C(C(=O)C4=C2C=C(CO)C=C4O)C(O)=C(C=C3)C6(C5OC(CO)C(O)C(O)C5O)C7=CC=CC(O)=C7C(=O)C8=C6C=C(CO)C=C8O
INCHIKEY=XVYHBBAKYWDFRE-UHFFFAOYSA-N
81.036148 179.0 
83.014763 152.0 
85.027992 1605.0 
87.044121 280.0 
90.843658 99.0 
91.037933 537.0 
97.027946 509.0 
99.041054 234.0 
109.028244 526.0 
113.025291 178.0 
127.036438 781.0 
133.055359 412.0 
143.029861 199.0 
147.038406 116.0 
151.035858 261.0 
158.458862 234.0 
161.017044 139.0 
163.035156 177.0 
173.029968 184.0 
179.028442 193.0 
188.045105 121.0 
194.805374 250.0 
209.095123 319.0 
211.069717 182.0 
225.056488 481.0 
226.060364 349.0 
227.06012 258.0 
233.05899 174.0 
237.053848 134.0 
239.068939 4986.0 
240.071915 1040.0 
241.085831 232.0 
247.072479 136.0 
251.023239 97.0 
252.070511 217.0 
253.050201 774.0 
255.052048 291.0 
256.044342 196.0 
257.079468 280.0 
263.065338 332.0 
264.636932 181.0 
265.077759 211.0 
266.049988 160.0 
267.059296 373.0 
268.072693 231.0 
269.040497 584.0 
269.078949 225.0 
271.058929 921.0 
271.999512 220.0 
272.066711 3239.0 
272.271454 136.0 
273.064301 509.0 
275.062988 196.0 
276.078766 216.0 
277.078247 91.0 
278.086456 133.0 
279.064575 248.0 
280.062958 725.0 
281.080292 305.0 
283.05899 606.0 
285.073547 166.0 
288.053253 155.0 
289.085022 762.0 
290.061432 139.0 
291.065582 120.0 
293.07663 372.0 
293.121552 408.0 
295.057037 194.0 
296.069427 154.0 
298.065948 163.0 
301.087952 142.0 
303.061554 595.0 
304.067474 200.0 
305.07428 274.0 
307.065765 158.0 
307.096619 198.0 
308.065063 479.0 
315.058228 185.0 
317.058838 134.0 
318.095062 273.0 
319.068451 171.0 
321.069366 234.0 
327.085114 145.0 
332.31662 333.0 
333.077057 143.0 
333.757751 178.0 
335.094757 225.0 
339.09021 240.0 
342.325378 178.0 
347.08197 259.0 
351.070831 165.0 
355.63089 103.0 
358.072723 120.0 
363.085724 102.0 
364.39444 249.0 
364.98761 224.0 
365.08432 239.0 
370.082611 240.0 
371.069366 195.0 
372.059998 120.0 
372.11496 279.0 
381.094849 386.0 
382.102539 186.0 
383.112061 704.0 
385.318329 126.0 
395.092346 173.0 
395.74939 171.0 
398.329559 153.0 
399.10379 1212.0 
400.101715 187.0 
401.049683 118.0 
401.123962 120.0 
402.125 145.0 
404.098267 153.0 
417.112213 920.0 
418.124817 567.0 
419.113922 468.0 
427.057739 145.0 
427.12027 177.0 
428.077118 112.0 
430.104065 198.0 
431.07547 150.0 
433.10022 242.0 
433.491608 255.0 
435.113739 300.0 
441.095337 125.0 
443.057587 183.0 
443.084351 230.0 
444.05069 142.0 
444.088013 139.0 
445.106415 1537.0 
446.106628 1097.0 
446.34314 153.0 
447.038452 114.0 
447.968445 328.0 
448.083252 90.0 
449.121582 199.0 
452.084442 84.0 
452.116058 122.0 
453.047974 157.0 
455.09256 606.0 
457.119843 758.0 
458.046875 122.0 
458.10791 273.0 
459.124512 151.0 
460.09021 228.0 
461.079865 437.0 
462.11261 384.0 
463.111298 1202.0 
464.074951 129.0 
464.121338 330.0 
465.110901 129.0 
466.006134 107.0 
466.087952 119.0 
469.1008 351.0 
471.09021 361.0 
472.056976 145.0 
473.098633 4910.0 
473.970551 180.0 
474.063751 258.0 
474.104553 1638.0 
475.116516 974.0 
475.837128 163.0 
476.084351 1550.0 
477.04718 322.0 
477.097473 515.0 
477.131927 630.0 
478.094666 1264.0 
479.104523 1304.0 
480.09903 386.0 
481.123749 1836.0 
482.056061 122.0 
482.129272 362.0 
483.127869 382.0 
485.067169 108.0 
485.112122 333.0 
486.110077 317.0 
486.910187 110.0 
487.099518 203.0 
488.078156 104.0 
489.09494 1986.0 
489.586945 181.0 
490.104218 3103.0 
490.553986 177.0 
491.024597 210.0 
491.109955 17170.0 
491.198273 166.0 
491.833618 154.0 
492.038361 214.0 
492.112854 6517.0 
492.313965 141.0 
493.123108 3048.0 
493.361206 198.0 
494.024506 302.0 
494.125366 1381.0 
495.101807 152.0 
496.128265 175.0 
497.115906 845.0 
498.115662 446.0 
499.102386 306.0 
499.148651 183.0 
500.071716 142.0 
501.086578 515.0 
502.110229 680.0 
502.982849 207.0 
503.111115 3908.0 
504.073883 292.0 
504.119751 929.0 
504.846771 167.0 
505.109619 893.0 
506.127808 193.0 
507.107635 1869.0 
508.06012 319.0 
508.116913 3546.0 
508.625946 159.0 
508.695099 228.0 
508.87796 185.0 
508.972198 242.0 
509.121521 36186.0 
510.122681 8208.0 
511.074188 130.0 
511.127747 1577.0 
512.11969 209.0 
513.070557 221.0 
513.123779 196.0 
513.414917 89.0 
513.468689 129.0 
514.09198 235.0 
515.115601 668.0 
516.060425 171.0 
516.110168 634.0 
517.122314 694.0 
518.123474 571.0 
519.106323 1540.0 
519.299133 99.0 
520.055481 105.0 
520.111938 1175.0 
520.51355 199.0 
521.008545 149.0 
521.116699 4628.0 
521.959961 229.0 
522.13031 1675.0 
522.709412 111.0 
523.136292 930.0 
524.374512 106.0 
525.109741 340.0 
526.121338 858.0 
526.309387 109.0 
527.135803 3969.0 
528.122925 908.0 
529.125427 669.0 
530.981567 98.0 
531.104553 573.0 
532.110168 1160.0 
532.201111 171.0 
532.813782 112.0 
533.117004 1099.0 
534.124146 309.0 
535.027893 149.0 
535.138367 578.0 
536.160767 133.0 
536.795471 180.0 
537.115356 601.0 
538.088928 413.0 
539.13092 444.0 
540.122925 127.0 
541.109741 103.0 
542.137207 115.0 
543.149719 431.0 
544.108643 171.0 
545.098328 353.0 
546.154358 116.0 
547.159363 318.0 
548.076111 114.0 
548.140503 363.0 
549.134338 448.0 
550.119263 186.0 
551.127136 361.0 
553.087769 219.0 
553.128906 719.0 
555.091431 348.0 
557.125854 318.0 
559.126648 198.0 
559.316528 268.0 
561.115845 219.0 
562.113831 439.0 
563.141602 545.0 
563.191467 200.0 
564.101562 182.0 
567.974792 92.0 
569.102173 136.0 
570.122009 144.0 
570.244141 102.0 
572.102844 125.0 
574.333801 147.0 
575.058838 93.0 
575.120422 119.0 
577.12738 89.0 
577.167603 118.0 
581.06604 105.0 
581.108032 222.0 
581.786011 138.0 
582.130371 129.0 
583.087891 396.0 
585.149963 158.0 
587.126648 457.0 
589.144531 786.0 
590.150574 150.0 
591.150085 115.0 
592.10321 93.0 
593.140442 658.0 
594.072327 146.0 
599.123657 497.0 
599.169983 423.0 
600.142517 421.0 
601.101746 190.0 
607.160522 1352.0 
608.080872 94.0 
608.184265 218.0 
616.033875 158.0 
616.512085 140.0 
617.128479 1594.0 
618.1521 298.0 
622.125427 170.0 
624.16687 180.0 
625.169556 976.0 
625.415161 147.0 
626.180298 457.0 
629.149048 101.0 
629.566345 87.0 
631.164124 174.0 
634.419678 155.0 
635.08728 346.0 
635.153687 5174.0 
636.157288 1551.0 
637.156616 361.0 
638.158691 169.0 
639.171814 136.0 
640.067444 97.0 
647.150269 193.0 
647.607483 246.0 
649.150391 152.0 
651.146362 125.0 
651.541565 110.0 
652.146545 479.0 
652.32135 99.0 
653.022644 299.0 
653.0755 763.0 
653.161926 19182.0 
654.163757 6365.0 
654.321289 102.0 
655.022217 117.0 
655.157898 764.0 
656.164673 109.0 
659.158936 141.0 
664.860291 174.0 
664.914246 177.0 
665.174438 410.0 
666.173523 407.0 
666.563416 180.0 
669.166992 679.0 
669.847961 172.0 
670.106201 158.0 
670.167725 133.0 
671.028503 289.0 
671.170654 18790.0 
672.174683 4854.0 
673.12915 194.0 
673.19928 559.0 
673.294983 219.0 
674.189148 182.0 
674.759277 88.0 
676.013977 147.0 
677.163208 434.0 
679.134033 99.0 
683.169983 340.0 
684.165527 274.0 
686.963623 116.0 
687.168579 420.0 
688.175354 161.0 
689.183411 3546.0 
690.117493 249.0 
690.1875 1402.0 
691.185242 201.0 
695.135864 195.0 
695.169312 248.0 
695.868896 216.0 
696.160706 206.0 
701.099243 133.0 
707.162109 178.0 
708.048096 99.0 
708.112183 166.0 
709.131104 309.0 
710.137939 173.0 
713.167725 150.0 
715.188843 297.0 
719.16449 291.0 
720.176636 137.0 
728.135071 114.0 
729.154846 114.0 
731.177368 166.0 
761.175964 181.0 
762.175903 97.0 
766.089294 193.0 
768.387817 106.0 
779.190247 732.0 
780.210938 155.0 
786.410156 86.0 
790.240234 134.0 
797.198914 1305.0 
799.213501 166.0 
815.215759 4269.0 
816.214355 1745.0 
817.120972 144.0 
817.201355 154.0 
832.378906 118.0 
832.716003 122.0 
833.096008 364.0 
833.221741 8659.0 
834.109802 321.0 
834.226013 3250.0 
835.228699 711.0 
851.236023 4058.0 
852.250244 1572.0 
854.382507 83.0 
857.492615 121.0 
870.197693 140.0 
871.14563 151.0 
889.194519 500.0 
890.24176 92.0 
END IONS

BEGIN IONS
TITLE=Scan Number: 388
PEPMASS=225.075
CHARGE=1+
MSLEVEL=2
FILENAME=G9_RG9_01_2955.mzXML
INSTRUMENT=ion trap
SCANS=388
SMILES=COC1=CC(CC(O)=O)=C(C(C)=O)C(O)=C1
INCHIKEY=UYUOIPIOTPMHKV-UHFFFAOYSA-N
77.039055 565.0 
79.053444 669.0 
80.045052 148.0 
80.061264 493.0 
81.070946 239.0 
83.012749 187.0 
90.047997 263.0 
91.052841 1487.0 
92.052284 545.0 
94.025581 193.0 
94.042366 793.0 
95.04882 1025.0 
98.030556 94.0 
103.053246 673.0 
104.060181 284.0 
105.042488 775.0 
105.069923 173.0 
106.044205 110.0 
106.730347 114.0 
107.047462 522.0 
108.017639 162.0 
108.058075 1518.0 
109.039848 189.0 
109.065544 1047.0 
111.042587 226.0 
118.040695 585.0 
118.9897 238.0 
119.047401 436.0 
120.054146 510.0 
121.028244 3103.0 
121.060905 348.0 
121.977943 211.0 
122.034859 938.0 
122.994888 117.0 
123.043732 1757.0 
123.079857 613.0 
123.118202 103.0 
124.044197 224.0 
129.037643 214.0 
131.049927 286.0 
133.061996 745.0 
135.043228 269.0 
136.051575 2251.0 
137.059937 12078.0 
138.062241 480.0 
139.241653 93.0 
146.997543 217.0 
147.044327 539.0 
148.050201 2789.0 
149.026611 181.0 
149.055618 768.0 
151.074417 1081.0 
153.002319 137.0 
159.056015 133.0 
161.06012 1898.0 
163.034103 371.0 
164.046356 5350.0 
165.011063 115.0 
165.054581 645.0 
167.034546 120.0 
177.925446 130.0 
178.063263 404.0 
178.758987 95.0 
178.94339 194.0 
179.069565 25405.0 
180.073242 2259.0 
181.315262 82.0 
194.189896 128.0 
207.065567 3128.0 
362.755829 92.0 
1398.466431 292.0 
1707.59436 230.0 
END IONS

BEGIN IONS
TITLE=Scan Number: 390
PEPMASS=282.134
CHARGE=1+
MSLEVEL=2
FILENAME=G9_RG9_01_2955.mzXML
INSTRUMENT=ion trap
SCANS=390
SMILES=COC1=C(OC)C2=C(C(C)=C1)C(OC)=C(C)C(=O)O2
INCHIKEY=PKKTXAMCHLIVDS-UHFFFAOYSA-N
83.011192 713.0 
84.00618 91.0 
95.048904 158.0 
105.07077 228.0 
115.042709 193.0 
121.027405 95.0 
129.06546 190.0 
131.090988 294.0 
133.063522 375.0 
135.079086 181.0 
143.049377 140.0 
147.047119 156.0 
148.032349 135.0 
149.050613 127.0 
151.039246 673.0 
155.436417 92.0 
161.098679 203.0 
162.065094 194.0 
163.07724 148.0 
165.018448 180.0 
166.055389 244.0 
167.065781 275.0 
170.944931 114.0 
173.067459 156.0 
178.069855 221.0 
179.034195 621.0 
191.070007 498.0 
191.114334 135.0 
192.015015 110.0 
194.056 105.0 
195.015167 101.0 
203.026566 223.0 
205.043365 212.0 
206.033096 141.0 
207.068604 252.0 
208.069092 88.0 
208.341995 204.0 
220.068695 191.0 
221.081985 579.0 
233.042511 147.0 
233.079315 168.0 
234.041412 129.0 
235.060944 3318.0 
237.933701 103.0 
249.073502 551.0 
250.082199 1260.0 
251.085175 208.0 
264.89032 172.0 
265.10675 11690.0 
265.204803 213.0 
266.11145 755.0 
1957.74939 234.0 
END IONS

BEGIN IONS
TITLE=Scan Number: 392
PEPMASS=304.21201
CHARGE=1+
MSLEVEL=2
FILENAME=G9_RG9_01_2955.mzXML
INSTRUMENT=ion trap
SCANS=392
SMILES=OC(CC(O)=O)C(CCCCCCCCC=C)C(O)=O
INCHIKEY=ZFABEUFWUOOQMI-UHFFFAOYSA-N
71.012222 1496.0 
71.050003 82.0 
71.083664 181.0 
71.279991 333.0 
72.530273 118.0 
73.028091 285.0 
73.945328 197.0 
77.039658 198.0 
79.054474 2665.0 
80.054115 123.0 
81.036362 282.0 
81.069641 4002.0 
82.527779 92.0 
83.047859 724.0 
83.085335 642.0 
85.027245 183.0 
85.065231 151.0 
89.02359 740.0 
91.052803 1879.0 
93.0392 178.0 
93.068596 2438.0 
95.046684 594.0 
95.085136 3660.0 
95.39473 104.0 
97.064812 982.0 
99.043182 203.0 
99.342628 113.0 
104.04126 131.0 
105.0438 911.0 
105.066948 991.0 
107.049736 594.0 
107.0858 2408.0 
107.245483 156.0 
109.062309 741.0 
109.099503 1642.0 
111.044266 406.0 
111.076538 166.0 
111.135666 82.0 
114.059998 118.0 
115.053802 166.0 
115.909805 134.0 
116.06179 133.0 
117.069153 1203.0 
117.135895 233.0 
118.074272 233.0 
119.084137 806.0 
120.087662 303.0 
121.064117 1071.0 
121.100662 4299.0 
122.067673 134.0 
122.1008 289.0 
123.077354 488.0 
123.117882 602.0 
124.083199 165.0 
125.059235 981.0 
126.061806 116.0 
127.073898 296.0 
128.06282 168.0 
128.11525 152.0 
131.055984 263.0 
131.084152 2937.0 
132.090912 242.0 
133.065506 662.0 
133.100082 1112.0 
135.044006 1337.0 
135.080734 1402.0 
135.115707 1205.0 
136.121094 176.0 
137.062149 719.0 
137.097275 389.0 
138.914017 169.0 
139.076035 365.0 
141.070953 170.0 
142.076401 223.0 
143.081894 224.0 
144.057449 222.0 
144.190155 163.0 
145.063309 325.0 
145.101257 3102.0 
146.10321 394.0 
147.077988 422.0 
147.116058 453.0 
149.057831 2127.0 
149.099152 234.0 
149.13446 324.0 
150.066284 270.0 
151.07431 1286.0 
151.113693 348.0 
152.078522 358.0 
152.937408 158.0 
153.056839 161.0 
153.091934 137.0 
153.126328 142.0 
154.089981 192.0 
155.083878 244.0 
156.030472 126.0 
156.091721 168.0 
158.519028 227.0 
159.080795 343.0 
159.116287 857.0 
161.095078 135.0 
161.133362 592.0 
163.074524 1217.0 
163.11171 228.0 
163.147598 6569.0 
164.079758 402.0 
164.129547 171.0 
164.153275 653.0 
164.706833 108.0 
165.092941 349.0 
165.127945 227.0 
165.333511 159.0 
167.067169 1060.0 
169.102631 539.0 
170.083969 232.0 
171.120575 98.0 
171.940582 329.0 
172.117432 193.0 
173.096008 562.0 
173.133621 2849.0 
175.129913 97.0 
175.977936 132.0 
177.090317 713.0 
177.163239 1188.0 
178.092468 157.0 
178.171707 146.0 
179.105133 626.0 
181.08403 529.0 
181.121063 115.0 
181.157211 1726.0 
181.366791 131.0 
181.516388 110.0 
183.147018 185.0 
183.670227 100.0 
186.1315 192.0 
187.147919 4143.0 
188.150085 403.0 
189.163239 121.0 
191.102356 179.0 
191.140167 1851.0 
192.14473 331.0 
195.103958 209.0 
195.175552 192.0 
197.133118 606.0 
204.857605 89.0 
205.132599 367.0 
205.156479 1773.0 
205.496796 109.0 
206.165222 459.0 
207.138809 100.0 
209.1147 374.0 
209.152542 1297.0 
210.154388 320.0 
215.113983 181.0 
215.141434 1001.0 
216.148209 106.0 
223.044373 158.0 
223.166962 917.0 
227.158875 721.0 
230.078812 247.0 
231.395157 98.0 
233.152466 7519.0 
233.387634 115.0 
234.08107 111.0 
234.15448 385.0 
251.163773 10328.0 
252.160538 785.0 
269.171814 332.0 
1330.540161 173.0 
1802.110474 294.0 
1923.33606 191.0 
1926.928833 243.0 
END IONS

BEGIN IONS
TITLE=Scan Number: 393
PEPMASS=378.19101
CHARGE=1+
MSLEVEL=2
FILENAME=G9_RG9_01_2955.mzXML
INSTRUMENT=ion trap
SCANS=393
SMILES=COC1=C(O)C(O)=CC(CCC(=O)CCCCC2=CC=C(O)C(O)=C2)=C1
INCHIKEY=VROIYIJLFIRSJU-UHFFFAOYSA-N
79.01709 202.0 
79.054237 244.0 
83.253059 340.0 
85.279785 112.0 
92.026512 131.0 
95.046257 829.0 
100.952545 106.0 
103.054443 239.0 
103.255493 215.0 
105.04406 229.0 
107.048569 179.0 
110.037132 2026.0 
111.01886 242.0 
119.049286 724.0 
121.03054 150.0 
123.043716 1118.0 
124.0448 383.0 
125.300232 188.0 
129.950348 105.0 
131.084366 374.0 
131.193817 124.0 
133.067215 189.0 
135.044556 612.0 
135.122299 246.0 
137.054749 182.0 
137.412918 162.0 
138.03006 12139.0 
139.016708 143.0 
139.034149 785.0 
140.039062 207.0 
141.04953 154.0 
146.025238 142.0 
148.051743 363.0 
149.057083 165.0 
150.061081 134.0 
152.441238 209.0 
152.685471 204.0 
152.732925 94.0 
152.786499 240.0 
152.889755 139.0 
153.001251 530.0 
153.053711 100965.0 
153.176758 72.0 
153.449875 99.0 
153.490768 142.0 
154.018234 190.0 
154.057587 5939.0 
154.272675 119.0 
155.234451 128.0 
155.360809 86.0 
156.651535 81.0 
161.061081 146.0 
173.060745 143.0 
176.049133 188.0 
177.091827 303.0 
179.068954 1185.0 
180.064789 249.0 
193.053009 108.0 
203.105515 564.0 
205.085052 203.0 
205.432449 141.0 
207.102325 174.0 
216.025986 163.0 
224.054138 248.0 
233.114914 379.0 
235.09079 127.0 
241.094162 84.0 
283.136597 194.0 
343.151276 1779.0 
344.16217 114.0 
361.162018 1798.0 
362.166962 272.0 
379.099548 140.0 
1642.569946 318.0 
1970.588379 205.0 
END IONS

BEGIN IONS
TITLE=Scan Number: 394
PEPMASS=407.198
CHARGE=1+
MSLEVEL=2
FILENAME=G9_RG9_01_2955.mzXML
INSTRUMENT=ion trap
SCANS=394
SMILES=C[C@@H]1CCC(=O)[C@H](C)[C@@]1(C)CC\C(C)=C\CC2=C(O)C(C=O)=C(C)C(Cl)=C2O
INCHIKEY=IJEHYEVNWOYGMS-WGUBEYSISA-N
71.367706 245.0 
77.035286 235.0 
79.053085 515.0 
81.033722 182.0 
83.079376 157.0 
91.052223 181.0 
92.058578 146.0 
93.06794 717.0 
95.048225 190.0 
95.084366 716.0 
96.493492 264.0 
97.065155 722.0 
97.869675 312.0 
105.042053 349.0 
106.05114 217.0 
106.076462 196.0 
106.134361 95.0 
107.054733 323.0 
107.084702 1833.0 
108.090607 225.0 
109.099815 853.0 
111.080688 335.0 
119.057327 191.0 
119.092934 178.0 
121.10038 1870.0 
121.526169 152.0 
122.102295 198.0 
123.120346 421.0 
124.121933 211.0 
125.000008 167.0 
129.049103 191.0 
133.100204 654.0 
134.651123 156.0 
135.043365 279.0 
135.117493 1946.0 
136.045761 203.0 
137.131744 92.0 
139.079056 127.0 
139.11026 471.0 
140.122314 269.0 
141.003204 124.0 
142.84343 249.0 
143.02359 1452.0 
147.114105 747.0 
148.121948 234.0 
149.130981 572.0 
150.120056 140.0 
153.125549 382.0 
155.025131 649.0 
156.026871 155.0 
157.02153 121.0 
161.093063 166.0 
163.034378 214.0 
164.034805 187.0 
165.009491 134.0 
165.089127 205.0 
170.045868 161.0 
171.019135 5336.0 
172.023193 286.0 
173.01265 178.0 
173.313217 113.0 
176.082169 486.0 
177.160828 1815.0 
178.154572 135.0 
180.966949 119.0 
180.998032 376.0 
183.005585 654.0 
183.052551 352.0 
187.015884 369.0 
189.161057 157.0 
190.134338 332.0 
191.18222 387.0 
192.057846 205.0 
192.181152 297.0 
196.998352 6655.0 
197.033279 158.0 
197.069077 308.0 
197.17337 206.0 
198.000671 1142.0 
198.177994 199.0 
198.257309 186.0 
199.014252 56853.0 
199.248001 80.0 
199.367752 135.0 
199.402603 111.0 
199.985764 107.0 
200.017242 6432.0 
200.946442 91.0 
200.974457 232.0 
201.012268 5072.0 
201.44696 116.0 
202.018555 153.0 
203.175888 343.0 
206.053055 112.0 
207.172501 107.0 
211.014954 359.0 
211.048187 460.0 
213.030228 1682.0 
214.0345 331.0 
214.505829 266.0 
215.002579 400.0 
216.012817 238.0 
221.18956 1161.0 
225.028305 732.0 
227.047211 379.0 
227.080551 186.0 
237.019974 113.0 
237.066559 81.0 
239.043854 1660.0 
240.99614 183.0 
241.032684 148.0 
250.106461 183.0 
251.064865 193.0 
265.064911 554.0 
267.075317 1220.0 
269.417236 310.0 
276.530273 99.0 
276.825775 210.0 
277.820496 199.0 
279.022461 137.0 
279.076355 726.0 
291.084045 82.0 
291.110229 181.0 
293.090332 112.0 
295.108368 145.0 
305.096191 359.0 
307.093475 202.0 
307.114471 242.0 
310.246918 114.0 
311.096466 154.0 
318.1763 129.0 
319.109161 1646.0 
334.134491 98.0 
347.142151 104.0 
347.168823 241.0 
361.161713 280.0 
361.190735 667.0 
362.165131 146.0 
365.152222 152.0 
379.201721 881.0 
380.213165 136.0 
388.650085 183.0 
389.187714 5956.0 
390.189209 600.0 
407.198608 1543.0 
408.202148 160.0 
409.199524 88.0 
1477.052002 76.0 
1701.051514 182.0 
1887.224976 169.0 
END IONS

BEGIN IONS
TITLE=Scan Number: 395
PEPMASS=424.22501
CHARGE=1+
MSLEVEL=2
FILENAME=G9_RG9_01_2955.mzXML
INSTRUMENT=ion trap
SCANS=395
SMILES=C[C@@H]1CCC(=O)[C@H](C)[C@@]1(C)CC\C(C)=C\CC2=C(O)C(C=O)=C(C)C(Cl)=C2O
INCHIKEY=IJEHYEVNWOYGMS-WGUBEYSISA-N
83.081047 271.0 
89.062965 349.0 
91.052856 139.0 
93.070023 598.0 
95.084755 175.0 
96.080009 322.0 
97.064713 123.0 
97.103485 177.0 
99.655922 224.0 
99.951569 176.0 
104.249825 224.0 
105.068108 261.0 
106.040489 126.0 
107.046829 261.0 
107.084641 708.0 
109.099365 1449.0 
114.566536 239.0 
115.027588 268.0 
117.060844 118.0 
118.036591 160.0 
119.082039 269.0 
121.100441 805.0 
123.111176 198.0 
124.913307 246.0 
125.090324 96.0 
125.128845 96.0 
125.460075 129.0 
133.079071 320.0 
135.115692 808.0 
135.523468 215.0 
136.121414 118.0 
139.111145 449.0 
142.023209 199.0 
143.025452 492.0 
144.090378 169.0 
149.133972 120.0 
150.066605 172.0 
153.018829 176.0 
153.127716 99.0 
155.022858 416.0 
155.326309 95.0 
159.343719 221.0 
161.131256 188.0 
163.148071 391.0 
168.320938 118.0 
169.039764 132.0 
170.922485 99.0 
171.018692 3963.0 
171.201584 163.0 
172.024216 367.0 
173.007004 263.0 
173.045853 103.0 
176.757996 303.0 
177.098663 145.0 
177.161896 1462.0 
181.000137 190.0 
183.024887 394.0 
185.012589 223.0 
191.173813 135.0 
192.201569 336.0 
195.02742 308.0 
196.99585 3169.0 
197.032089 186.0 
197.998734 333.0 
198.191833 237.0 
198.355164 161.0 
198.470444 163.0 
198.530182 120.0 
198.965057 420.0 
199.014725 32144.0 
199.05072 229.0 
199.419952 92.0 
199.979156 157.0 
200.018387 1873.0 
200.058685 84.0 
201.01178 3777.0 
201.602112 110.0 
203.1772 400.0 
206.108444 209.0 
208.95433 155.0 
211.014297 183.0 
211.052231 244.0 
212.052322 187.0 
213.033951 443.0 
215.024719 407.0 
221.189819 117.0 
225.025772 165.0 
225.049118 215.0 
226.042648 162.0 
227.050842 565.0 
227.820709 179.0 
233.162277 167.0 
237.03331 107.0 
237.069946 129.0 
239.047623 949.0 
239.086746 200.0 
240.559372 131.0 
240.885483 137.0 
241.063141 192.0 
253.041977 310.0 
253.060211 330.0 
255.192261 145.0 
265.062439 321.0 
266.063141 149.0 
267.077728 802.0 
268.086151 174.0 
285.210815 110.0 
287.92746 133.0 
308.150269 152.0 
319.062408 174.0 
319.11145 528.0 
321.096863 245.0 
333.126038 336.0 
335.14624 193.0 
347.13504 201.0 
350.285583 228.0 
359.154388 186.0 
361.185699 195.0 
362.151672 88.0 
379.201111 449.0 
380.211731 210.0 
389.184998 3734.0 
390.191315 255.0 
392.473724 122.0 
407.195221 2228.0 
407.329529 108.0 
408.215881 129.0 
425.354828 102.0 
END IONS

BEGIN IONS
TITLE=Scan Number: 396
PEPMASS=467.155
CHARGE=1+
MSLEVEL=2
FILENAME=G9_RG9_01_2955.mzXML
INSTRUMENT=ion trap
SCANS=396
SMILES=CC(C)(O[C@@H]1O[C@H](CO)[C@@H](O)[C@H](O)[C@H]1O)[C@@H](O)COC2=C3C=CC(=O)OC3=CC4=C2C=CO4
INCHIKEY=VCJBNRNRYLKSGX-OOBAEQHESA-N
83.016724 183.0 
85.029671 717.0 
86.398438 144.0 
95.014252 95.0 
97.032761 183.0 
103.041977 162.0 
119.04364 423.0 
121.026711 216.0 
131.050308 173.0 
133.064682 199.0 
145.0289 206.0 
147.047928 664.0 
153.529785 176.0 
154.033157 221.0 
157.023926 123.0 
159.042053 723.0 
160.051819 144.0 
164.034897 307.0 
173.025681 348.0 
173.066299 277.0 
174.025909 198.0 
175.031387 393.0 
176.039871 235.0 
176.074295 188.0 
182.066879 697.0 
182.569839 151.0 
187.037628 116.0 
191.071854 216.0 
198.041016 217.0 
201.017014 3657.0 
202.023407 3050.0 
202.520309 216.0 
203.033127 10346.0 
204.038925 832.0 
205.387924 99.0 
207.074341 227.0 
214.055893 196.0 
215.029922 528.0 
227.028992 167.0 
230.091385 188.0 
236.290268 138.0 
238.083237 155.0 
241.087692 206.0 
243.063049 332.0 
245.080765 454.0 
257.288147 89.0 
258.04776 145.0 
262.392395 151.0 
265.072784 164.0 
271.570374 242.0 
274.563202 250.0 
278.557922 244.0 
286.081268 180.0 
287.055542 223.0 
287.093536 4744.0 
288.04187 135.0 
288.086395 655.0 
305.101349 8943.0 
306.049805 141.0 
306.106079 1770.0 
307.072235 239.0 
309.075012 192.0 
312.070221 228.0 
316.101135 227.0 
319.055328 247.0 
326.204254 93.0 
327.102417 120.0 
328.106598 88.0 
336.084381 129.0 
345.12088 424.0 
346.119904 395.0 
366.812714 101.0 
387.109833 93.0 
388.623535 1182.0 
389.138641 803.0 
390.128357 236.0 
399.096527 169.0 
403.047028 130.0 
END IONS

BEGIN IONS
TITLE=Scan Number: 398
PEPMASS=225.075
CHARGE=1+
MSLEVEL=2
FILENAME=A11_RA11_01_2664.mzXML
INSTRUMENT=ion trap
SCANS=398
SMILES=COC1=CC(O)=C2C(=O)OC(C)C(O)C2=C1
INCHIKEY=MJPSOCVCUXUXLP-UHFFFAOYSA-N
75.380318 190.0 
77.037048 417.0 
77.972816 91.0 
78.046318 2022.0 
79.052658 1689.0 
79.652 85.0 
80.058441 739.0 
80.937759 104.0 
82.033928 195.0 
83.121536 257.0 
89.038635 1051.0 
89.152206 131.0 
90.046036 3386.0 
90.12886 305.0 
91.024155 161.0 
91.053841 4134.0 
91.516563 127.0 
92.026932 121.0 
92.059441 357.0 
93.033676 1518.0 
93.069763 520.0 
94.040329 686.0 
95.048874 1938.0 
96.051003 222.0 
98.039764 130.0 
102.044907 492.0 
102.950134 140.0 
103.052887 2711.0 
103.146919 144.0 
104.056168 279.0 
105.044281 6748.0 
105.068878 937.0 
105.558449 203.0 
106.042793 1450.0 
106.068565 136.0 
106.378189 270.0 
107.047523 2204.0 
108.057213 2956.0 
109.025307 281.0 
109.064568 1497.0 
110.033867 208.0 
110.881836 211.0 
115.053192 757.0 
116.061783 167.0 
117.812607 293.0 
117.990845 88.0 
118.041718 8374.0 
118.26683 117.0 
119.025169 186.0 
119.048698 1627.0 
120.058685 685.0 
121.027733 2145.0 
121.062462 662.0 
121.776894 138.0 
122.03437 377.0 
123.042046 721.0 
123.078384 1527.0 
124.051285 1375.0 
124.082275 398.0 
125.05658 188.0 
130.040741 300.0 
131.046356 440.0 
132.051254 188.0 
132.970047 296.0 
133.064377 18627.0 
134.033859 241.0 
134.067001 1485.0 
134.350677 240.0 
135.007416 582.0 
135.0448 1915.0 
135.079529 1372.0 
135.139267 97.0 
136.050903 4262.0 
137.060593 2954.0 
138.067184 545.0 
139.023972 228.0 
139.077072 1921.0 
140.046432 222.0 
140.494339 84.0 
141.057373 154.0 
146.034103 2602.0 
147.043442 840.0 
148.051193 2695.0 
149.022278 211.0 
149.059235 418.0 
151.038742 806.0 
151.074585 7982.0 
151.141968 287.0 
151.225845 158.0 
152.07901 766.0 
153.335022 204.0 
153.457611 152.0 
154.924866 160.0 
157.029007 103.0 
159.052933 116.0 
161.059525 5336.0 
161.133163 348.0 
161.550003 116.0 
162.06221 459.0 
162.162018 171.0 
162.371597 167.0 
163.037994 1392.0 
163.075104 1113.0 
163.686127 172.0 
164.046753 17101.0 
165.051239 3011.0 
166.518295 202.0 
167.033905 268.0 
171.824707 65.0 
175.034241 115.0 
177.051987 292.0 
178.064865 333.0 
178.245209 179.0 
178.49852 282.0 
178.596481 154.0 
179.069901 77473.0 
179.152512 179.0 
179.222473 230.0 
179.564682 172.0 
179.997238 234.0 
180.030563 109.0 
180.07338 4560.0 
180.319855 80.0 
181.044846 224.0 
181.08432 669.0 
182.089233 127.0 
188.998825 151.0 
189.052383 2138.0 
190.066589 178.0 
191.083069 87.0 
192.041306 219.0 
193.475464 97.0 
194.057159 273.0 
195.225494 222.0 
207.000076 255.0 
207.065033 31350.0 
208.069763 1911.0 
225.046295 265.0 
225.07547 3463.0 
226.087784 180.0 
282.520172 233.0 
359.656616 99.0 
1580.973511 324.0 
1687.904541 330.0 
1693.919556 250.0 
1809.234253 270.0 
1831.452148 123.0 
1912.925537 166.0 
END IONS

BEGIN IONS
TITLE=Scan Number: 399
PEPMASS=287.185
CHARGE=1+
MSLEVEL=2
FILENAME=A11_RA11_01_2664.mzXML
INSTRUMENT=ion trap
SCANS=399
SMILES=CCCCCC=CCCCC(C(O)CC(O)=O)C(O)=O
INCHIKEY=XHJITGZAWUNULF-UHFFFAOYSA-N
79.053268 2111.0 
80.056053 171.0 
81.032784 395.0 
81.070679 2120.0 
83.050415 537.0 
83.083878 587.0 
85.050842 164.0 
86.302391 261.0 
87.616989 202.0 
89.024132 403.0 
91.034027 180.0 
91.054016 3775.0 
92.040009 244.0 
92.05983 507.0 
92.243362 110.0 
93.070427 4563.0 
93.15731 114.0 
95.048149 960.0 
95.086487 1681.0 
95.832825 106.0 
97.065651 559.0 
97.102867 611.0 
99.080254 242.0 
104.062607 267.0 
105.044281 1911.0 
105.068062 1741.0 
106.048759 649.0 
107.048347 1337.0 
107.084213 3197.0 
108.052719 153.0 
108.087479 343.0 
108.216316 102.0 
109.028801 158.0 
109.063248 587.0 
109.100891 633.0 
111.042694 448.0 
111.081627 162.0 
113.104088 284.0 
115.05262 726.0 
116.061241 425.0 
117.070572 2279.0 
118.056747 149.0 
119.050095 187.0 
119.087502 1319.0 
120.091904 379.0 
121.028503 199.0 
121.066292 1702.0 
121.100632 3021.0 
122.099014 307.0 
123.043488 326.0 
123.078468 1071.0 
125.056656 303.0 
125.099304 358.0 
129.069626 578.0 
130.075577 358.0 
131.084534 3093.0 
132.088348 301.0 
133.063492 580.0 
133.09935 1047.0 
134.072662 176.0 
135.042953 2606.0 
135.07959 2043.0 
135.115173 933.0 
136.045029 333.0 
136.091995 185.0 
137.061478 682.0 
137.095123 163.0 
139.075974 692.0 
139.106979 158.0 
141.069336 106.0 
141.098785 203.0 
143.085678 479.0 
144.058746 149.0 
144.078384 184.0 
144.094879 217.0 
145.066772 817.0 
145.102722 2664.0 
146.111267 246.0 
147.080948 590.0 
148.067902 127.0 
149.058624 2366.0 
149.098007 281.0 
149.130905 621.0 
150.061783 237.0 
151.07515 1933.0 
152.078094 107.0 
153.091965 160.0 
155.069473 991.0 
155.088226 767.0 
156.086761 138.0 
157.102142 283.0 
159.07547 351.0 
159.121033 616.0 
161.097885 463.0 
161.132141 303.0 
162.148972 278.0 
163.074646 1995.0 
163.110657 718.0 
163.147766 5358.0 
164.140625 129.0 
165.091888 492.0 
167.069794 731.0 
169.096176 259.0 
171.119232 166.0 
173.09668 284.0 
173.133499 2870.0 
174.095413 144.0 
174.134201 324.0 
175.344101 100.0 
177.090851 895.0 
177.16507 919.0 
178.093552 204.0 
178.168961 86.0 
179.106979 587.0 
181.083359 513.0 
181.15564 856.0 
183.102158 263.0 
185.096817 250.0 
186.102402 339.0 
187.105179 344.0 
187.146927 2583.0 
189.127914 831.0 
189.164948 106.0 
190.166809 161.0 
191.104767 214.0 
191.141251 1450.0 
193.117554 202.0 
195.101944 175.0 
197.069504 177.0 
197.133179 534.0 
205.157349 2825.0 
206.146011 351.0 
207.17337 274.0 
209.152054 1470.0 
210.160355 112.0 
210.209518 102.0 
215.144669 1543.0 
216.147125 179.0 
224.199188 160.0 
227.165268 179.0 
233.153091 7193.0 
234.153397 475.0 
247.790787 135.0 
248.484161 114.0 
249.815491 101.0 
250.587234 114.0 
251.122665 205.0 
251.163971 5683.0 
252.170456 1177.0 
254.757538 158.0 
269.166016 356.0 
280.095032 106.0 
1282.842407 109.0 
1303.177979 213.0 
1356.624878 222.0 
1835.301514 260.0 
1881.131348 150.0 
1987.823486 190.0 
END IONS

BEGIN IONS
TITLE=Scan Number: 401
PEPMASS=363.216
CHARGE=1+
MSLEVEL=2
FILENAME=A11_RA11_01_2664.mzXML
INSTRUMENT=ion trap
SCANS=401
SMILES=CCCCCC(=O)OC1C=C2C(=O)OCC2(O)C3(C)CCC(O)C(C)(C)C13
INCHIKEY=CCTUVGJRXQPMOJ-UHFFFAOYSA-N
77.041458 598.0 
79.054062 1266.0 
80.056595 157.0 
81.069412 3009.0 
81.505058 98.0 
83.418289 202.0 
84.415909 176.0 
87.79071 258.0 
89.05835 229.0 
89.564636 126.0 
91.055603 432.0 
93.071045 683.0 
95.049271 100.0 
96.091507 261.0 
96.646873 272.0 
97.059128 301.0 
99.313728 184.0 
103.049217 99.0 
103.533249 144.0 
104.057808 192.0 
105.046951 799.0 
105.069328 2315.0 
106.073151 443.0 
107.081337 558.0 
108.090736 348.0 
110.10627 160.0 
110.725441 113.0 
111.044548 202.0 
115.053391 1342.0 
116.059708 609.0 
117.067574 874.0 
119.046463 538.0 
119.083397 2271.0 
119.671013 114.0 
120.06163 289.0 
121.062691 353.0 
122.449547 189.0 
123.081017 1761.0 
124.082962 387.0 
125.062485 128.0 
125.094803 194.0 
127.059639 339.0 
128.033524 190.0 
128.061386 3814.0 
129.048492 164.0 
129.070969 1947.0 
130.073257 710.0 
131.045822 554.0 
131.085175 4285.0 
132.0578 431.0 
132.913254 201.0 
133.065201 4566.0 
133.101532 492.0 
134.065994 354.0 
135.080154 155.0 
137.061172 399.0 
139.114899 145.0 
140.170074 128.0 
141.069962 2097.0 
141.201706 173.0 
142.075226 4570.0 
142.118988 183.0 
143.003357 116.0 
143.084503 15274.0 
143.193451 104.0 
144.090256 2560.0 
145.065475 2086.0 
145.100494 2022.0 
146.067215 109.0 
147.043457 692.0 
147.07814 1727.0 
147.119385 129.0 
148.054977 284.0 
148.089722 201.0 
149.058578 7246.0 
149.095001 181.0 
149.316696 122.0 
150.061386 577.0 
150.215988 151.0 
151.037613 351.0 
151.07692 779.0 
151.273682 116.0 
153.054443 330.0 
153.073318 498.0 
154.07605 195.0 
155.058151 1386.0 
155.084869 4817.0 
156.064255 143.0 
156.092422 3470.0 
156.420486 131.0 
156.99379 156.0 
157.065994 1077.0 
157.100433 7187.0 
158.079773 231.0 
158.103882 1243.0 
159.044998 288.0 
159.080444 1138.0 
159.117874 1200.0 
160.088058 467.0 
160.118576 607.0 
161.060837 5698.0 
161.093338 407.0 
161.138077 168.0 
161.952148 268.0 
162.066147 1877.0 
162.202179 141.0 
163.036041 252.0 
163.074265 1307.0 
163.295303 155.0 
165.066116 396.0 
167.090225 204.0 
168.047684 144.0 
168.097305 458.0 
169.047882 286.0 
169.07431 617.0 
169.099152 850.0 
170.109039 8971.0 
171.0802 886.0 
171.112854 1188.0 
172.078674 156.0 
172.119431 192.0 
173.058792 653.0 
173.096268 531.0 
173.132553 1693.0 
174.056442 121.0 
174.099655 291.0 
174.135468 140.0 
174.746658 269.0 
175.009079 107.0 
175.043655 292.0 
175.07486 8262.0 
175.108337 390.0 
175.139557 131.0 
175.988907 136.0 
176.079483 1715.0 
177.056213 2527.0 
177.086121 693.0 
177.149689 241.0 
177.192535 254.0 
178.062241 528.0 
179.072433 1407.0 
179.937851 120.0 
180.07872 152.0 
180.270477 120.0 
181.082657 271.0 
181.100876 423.0 
183.084381 340.0 
183.115799 1988.0 
184.125198 329.0 
184.228058 243.0 
185.06044 384.0 
185.132416 40569.0 
185.926361 278.0 
186.108902 382.0 
186.13588 3640.0 
186.461273 134.0 
187.074432 9351.0 
187.109436 1464.0 
188.040894 92.0 
188.064987 177.0 
189.090027 452.0 
189.129059 123.0 
190.098831 1438.0 
190.131668 177.0 
191.072418 666.0 
191.105057 233.0 
193.095535 666.0 
193.830719 236.0 
196.083801 152.0 
199.077042 183.0 
199.112167 2028.0 
200.123199 97.0 
201.052734 122.0 
201.093506 125.0 
201.128098 851.0 
202.092667 129.0 
203.106979 738.0 
203.137177 148.0 
204.104843 317.0 
205.091476 196.0 
205.124725 310.0 
211.1129 1393.0 
212.117783 264.0 
217.122543 163.0 
218.124283 332.0 
219.137115 1057.0 
220.141098 197.0 
220.673569 231.0 
222.808365 89.0 
229.122574 12717.0 
230.126678 1909.0 
232.411819 222.0 
237.134613 132.0 
247.133286 19354.0 
247.356293 158.0 
248.135452 2321.0 
250.102966 100.0 
256.411804 111.0 
265.100494 350.0 
265.142609 5721.0 
266.142151 312.0 
267.117371 101.0 
361.578583 102.0 
362.180664 253.0 
363.106567 124.0 
363.214935 5612.0 
364.220673 611.0 
366.335358 108.0 
1411.682739 211.0 
1511.460327 213.0 
1573.482544 362.0 
1589.848755 256.0 
1688.209717 138.0 
1797.56543 187.0 
1856.001587 161.0 
END IONS

BEGIN IONS
TITLE=Scan Number: 402
PEPMASS=399.237
CHARGE=1+
MSLEVEL=2
FILENAME=A11_RA11_01_2664.mzXML
INSTRUMENT=ion trap
SCANS=402
SMILES=CCC(CC1CCC(O1)C(C)C(O)=O)OC(=O)C(C)C2CCC(CC(C)=O)O2
INCHIKEY=XFNIQDLOQLIJTQ-UHFFFAOYSA-N
75.519089 37.0 
77.016922 209.0 
77.038162 291.0 
78.100334 233.0 
79.053909 9961.0 
79.330666 178.0 
79.342514 159.0 
79.820374 119.0 
79.986298 58.0 
80.016411 206.0 
80.037003 26.0 
80.05381 79.0 
80.22683 210.0 
80.748825 61.0 
80.960175 219.0 
81.006546 72.0 
81.069702 44469.0 
81.232712 52.0 
81.543861 77.0 
81.84066 114.0 
82.072716 2614.0 
82.233856 68.0 
82.26001 37.0 
83.013214 243.0 
83.048691 8483.0 
83.071922 305.0 
83.087051 1600.0 
83.588264 22.0 
84.051132 362.0 
84.092476 204.0 
84.415298 61.0 
84.729408 114.0 
84.899994 217.0 
84.972176 33.0 
85.035454 226.0 
85.064575 9731.0 
85.407059 44.0 
85.78875 57.0 
86.068047 585.0 
86.892365 92.0 
87.043312 1445.0 
87.246475 21.0 
87.364662 295.0 
87.404572 25.0 
87.592377 230.0 
87.687317 77.0 
90.611313 209.0 
91.053398 2111.0 
92.023613 203.0 
92.052139 35.0 
93.069603 7993.0 
94.072273 562.0 
94.84655 104.0 
94.881889 138.0 
94.919052 125.0 
94.974487 278.0 
95.049194 838.0 
95.085411 31225.0 
95.228569 86.0 
95.247459 132.0 
95.267677 29.0 
95.696678 25.0 
95.805931 173.0 
95.926544 103.0 
96.087761 1852.0 
96.450043 98.0 
96.575737 326.0 
97.029686 261.0 
97.064316 9843.0 
97.101196 11883.0 
97.186562 28.0 
97.521248 53.0 
97.541138 78.0 
97.589088 76.0 
97.707085 41.0 
97.742073 49.0 
97.904083 18.0 
97.998329 156.0 
98.066658 588.0 
98.105621 1069.0 
98.197319 55.0 
98.231789 28.0 
98.361374 97.0 
98.391457 66.0 
98.713387 61.0 
99.043297 156.0 
99.080704 1055.0 
100.080879 159.0 
100.676949 58.0 
100.822357 279.0 
101.247841 89.0 
101.860222 332.0 
103.07505 277.0 
105.046295 340.0 
105.068871 4596.0 
106.049713 179.0 
106.074661 324.0 
106.138969 183.0 
107.047203 2020.0 
107.085625 25883.0 
107.455803 56.0 
107.563469 53.0 
107.941978 82.0 
108.050995 183.0 
108.087418 2047.0 
108.576485 52.0 
108.934563 121.0 
109.063667 3293.0 
109.101181 977.0 
109.661018 49.0 
110.070282 323.0 
110.207893 64.0 
111.046295 134.0 
111.077263 402.0 
112.538269 73.0 
113.09536 354.0 
116.732033 28.0 
117.071281 377.0 
117.496559 62.0 
119.06105 1186.0 
119.084587 7527.0 
120.064445 256.0 
120.086052 555.0 
120.686302 52.0 
121.06234 1088.0 
121.100754 2143.0 
122.070465 463.0 
122.828583 295.0 
123.080322 47993.0 
123.125839 147.0 
123.680443 45.0 
124.043724 251.0 
124.083206 2563.0 
124.281837 73.0 
124.674706 122.0 
124.911087 103.0 
125.0597 15843.0 
125.095818 32168.0 
125.190521 44.0 
125.264946 115.0 
126.062042 540.0 
126.097855 2148.0 
126.223984 38.0 
126.65213 111.0 
126.704597 23.0 
126.762848 120.0 
127.022507 251.0 
127.074821 76712.0 
127.141197 40.0 
127.20092 44.0 
127.232956 105.0 
127.271797 52.0 
127.890762 212.0 
128.052246 157.0 
128.078201 5078.0 
128.318634 153.0 
128.807556 113.0 
128.891449 109.0 
129.073898 733.0 
130.077225 255.0 
130.747665 65.0 
130.8479 93.0 
132.04097 171.0 
132.207977 32.0 
133.049759 164.0 
133.098419 143.0 
133.200333 93.0 
133.409119 100.0 
135.079727 108.0 
135.11702 6257.0 
135.186646 161.0 
136.121109 223.0 
137.095169 9505.0 
137.134552 225.0 
137.180618 141.0 
138.099823 167.0 
138.199677 68.0 
139.074295 165.0 
139.111801 6184.0 
139.603302 22.0 
139.901062 91.0 
140.013626 131.0 
140.11586 566.0 
141.089005 594.0 
142.220795 126.0 
142.428162 122.0 
142.499298 176.0 
143.070129 12150.0 
143.107239 692.0 
143.171158 48.0 
144.088974 220.0 
145.082764 259.0 
145.100967 956.0 
146.105759 174.0 
147.080246 8060.0 
147.224609 36.0 
147.411163 104.0 
147.52652 50.0 
147.642853 38.0 
148.086411 1145.0 
149.097809 163.0 
149.18013 72.0 
151.114594 167.0 
153.126511 777.0 
154.136795 195.0 
155.106552 515.0 
155.584915 98.0 
157.086838 138.0 
162.146698 227.0 
163.112061 2572.0 
163.443527 146.0 
164.080048 152.0 
164.115158 446.0 
164.729706 76.0 
165.046463 177.0 
165.090668 33626.0 
165.401962 159.0 
165.685394 164.0 
166.093643 2604.0 
167.110962 276.0 
167.136108 78.0 
167.374649 144.0 
167.510361 85.0 
173.212997 244.0 
179.106628 160.0 
180.685272 438.0 
181.123016 10754.0 
182.123718 939.0 
183.102402 10720.0 
183.179382 49.0 
184.10611 2047.0 
185.107788 117.0 
197.118317 160.0 
199.133347 2907.0 
201.111969 3193.0 
202.121384 847.0 
210.410568 56.0 
307.192902 329.0 
325.198456 142.0 
326.2034 201.0 
381.074554 180.0 
381.2453 164.0 
381.539795 84.0 
434.869537 141.0 
542.297546 180.0 
641.506226 29.0 
1114.526489 239.0 
1394.27063 43.0 
1396.083252 204.0 
1460.608521 356.0 
1503.200562 142.0 
1524.786255 187.0 
1553.790161 438.0 
1628.669922 152.0 
1674.949951 150.0 
1780.956299 227.0 
1789.977051 63.0 
1816.911499 197.0 
1835.593506 179.0 
1878.455688 225.0 
1920.398071 59.0 
1965.744995 308.0 
1976.064209 138.0 
END IONS

BEGIN IONS
TITLE=Scan Number: 403
PEPMASS=416.26401
CHARGE=1+
MSLEVEL=2
FILENAME=A11_RA11_01_2664.mzXML
INSTRUMENT=ion trap
SCANS=403
SMILES=CCC(CC1CCC(O1)C(C)C(O)=O)OC(=O)C(C)C2CCC(CC(C)=O)O2
INCHIKEY=XFNIQDLOQLIJTQ-UHFFFAOYSA-N
75.047974 113.0 
79.05423 2072.0 
80.05497 452.0 
81.069733 14818.0 
81.917809 238.0 
82.074501 97.0 
83.047905 1457.0 
83.083389 1269.0 
83.697266 110.0 
84.085548 134.0 
84.2985 100.0 
85.006966 102.0 
85.022751 193.0 
85.064644 3036.0 
85.096848 132.0 
86.061218 182.0 
86.727036 104.0 
88.845337 278.0 
89.306976 292.0 
90.012016 229.0 
91.055435 294.0 
93.071037 3996.0 
95.048386 290.0 
95.085152 6733.0 
95.279793 129.0 
96.088226 789.0 
97.063385 4207.0 
97.101227 6881.0 
98.069016 280.0 
98.106323 416.0 
99.045044 629.0 
99.078423 182.0 
100.98938 180.0 
104.667831 121.0 
105.04467 162.0 
105.073143 1180.0 
106.72625 97.0 
106.793587 173.0 
106.8909 164.0 
106.909508 261.0 
107.049583 657.0 
107.085022 8872.0 
108.054466 130.0 
108.089066 551.0 
109.064911 1780.0 
109.1026 119.0 
110.066277 188.0 
110.537628 92.0 
111.021362 248.0 
115.962784 139.0 
117.070122 229.0 
119.062836 549.0 
119.086578 1241.0 
121.060799 314.0 
121.100594 1613.0 
122.104286 143.0 
123.080223 19523.0 
124.082527 1531.0 
125.058678 9957.0 
125.09584 28151.0 
126.064507 766.0 
126.099739 1383.0 
126.133293 136.0 
126.328835 132.0 
126.589531 217.0 
126.644569 223.0 
126.850464 323.0 
126.960464 163.0 
126.979866 168.0 
127.028152 123.0 
127.075104 53752.0 
127.130547 147.0 
127.23452 195.0 
127.788246 273.0 
127.96122 170.0 
128.07843 3841.0 
129.084793 144.0 
129.150345 78.0 
133.019608 131.0 
133.281189 268.0 
135.083954 249.0 
135.117722 2134.0 
136.076614 177.0 
136.121521 365.0 
136.45546 119.0 
137.094421 2940.0 
138.046722 200.0 
138.101578 735.0 
139.069183 225.0 
139.112244 3488.0 
140.113617 388.0 
143.070312 10400.0 
144.074539 560.0 
145.103012 830.0 
147.051285 365.0 
147.081787 3501.0 
148.081085 170.0 
151.027573 519.0 
153.127579 637.0 
155.104263 474.0 
163.011078 236.0 
163.109512 1408.0 
164.472549 142.0 
165.02475 228.0 
165.090881 25514.0 
166.094574 2881.0 
167.044144 117.0 
173.048416 735.0 
181.07547 167.0 
181.121964 26157.0 
181.872101 186.0 
182.082108 92.0 
182.123505 2290.0 
182.18602 167.0 
182.841599 157.0 
182.895401 231.0 
183.012131 170.0 
183.033447 638.0 
183.101685 31023.0 
183.387039 89.0 
183.452545 257.0 
184.076828 247.0 
184.105453 1744.0 
191.05867 744.0 
198.94838 115.0 
199.073425 223.0 
199.133423 15325.0 
199.44072 120.0 
200.136963 1357.0 
200.650406 112.0 
201.040955 819.0 
201.077881 297.0 
201.112183 27112.0 
201.178833 101.0 
201.324539 104.0 
201.569305 155.0 
202.116119 1400.0 
203.111725 239.0 
203.525894 86.0 
211.642288 100.0 
213.047913 223.0 
213.077118 154.0 
215.080399 169.0 
217.039124 123.0 
217.147247 161.0 
219.049652 517.0 
219.962296 194.0 
237.079636 159.0 
256.599609 127.0 
257.072418 227.0 
274.592316 116.0 
275.07666 613.0 
311.109863 202.0 
325.118744 126.0 
325.197693 853.0 
347.135559 106.0 
363.154358 156.0 
363.213837 228.0 
381.164062 80.0 
381.229126 1570.0 
381.957275 102.0 
382.239838 165.0 
399.238647 461.0 
399.952972 144.0 
400.246216 299.0 
437.12915 155.0 
437.191742 347.0 
455.19986 525.0 
683.929932 176.0 
1344.47583 240.0 
1420.701538 142.0 
1481.980103 195.0 
1517.93042 198.0 
1571.432495 123.0 
1572.932251 159.0 
1691.566162 356.0 
1714.598755 141.0 
1723.9729 141.0 
1840.137939 172.0 
1913.109009 300.0 
1938.582275 272.0 
1955.313232 200.0 
END IONS

BEGIN IONS
TITLE=Scan Number: 404
PEPMASS=421.21899
CHARGE=1+
MSLEVEL=2
FILENAME=A11_RA11_01_2664.mzXML
INSTRUMENT=ion trap
SCANS=404
SMILES=CCC(CC1CCC(O1)C(C)C(O)=O)OC(=O)C(C)C2CCC(CC(C)=O)O2
INCHIKEY=XFNIQDLOQLIJTQ-UHFFFAOYSA-N
81.847198 180.0 
96.120148 206.0 
97.102119 278.0 
118.093697 290.0 
118.923035 184.0 
123.590515 178.0 
124.08493 173.0 
125.097672 137.0 
133.01796 191.0 
134.446457 215.0 
139.112457 280.0 
151.355331 230.0 
152.109039 314.0 
165.037018 186.0 
167.025833 137.0 
174.750259 326.0 
177.721634 99.0 
177.749649 123.0 
178.760803 391.0 
179.102234 332.0 
186.333954 336.0 
187.470963 79.0 
197.430969 205.0 
198.070709 172.0 
205.032761 156.0 
206.824203 160.0 
207.092209 150.0 
210.154205 122.0 
212.908554 270.0 
213.150314 129.0 
220.359467 158.0 
221.115051 2422.0 
221.207962 159.0 
222.383499 86.0 
223.093735 107180.0 
223.145737 98.0 
223.933487 117.0 
224.096329 8749.0 
225.732162 155.0 
225.779663 78.0 
225.800797 114.0 
225.848114 115.0 
225.888428 100.0 
227.74382 81.0 
232.680923 217.0 
233.137329 102.0 
237.109085 1306.0 
238.516235 170.0 
239.131485 169.0 
240.667816 255.0 
241.106277 125.0 
242.172226 135.0 
248.308136 115.0 
253.088745 149.0 
257.010437 161.0 
266.720062 264.0 
270.053894 264.0 
272.956329 176.0 
292.529816 136.0 
296.342072 170.0 
308.945709 96.0 
311.318542 174.0 
327.463043 398.0 
334.118408 289.0 
354.790466 103.0 
356.063416 74.0 
377.231476 1260.0 
380.597748 224.0 
386.371735 204.0 
402.79599 233.0 
405.549683 253.0 
416.135803 161.0 
419.237061 139.0 
419.350372 241.0 
419.607605 86.0 
419.821991 74.0 
420.025269 250.0 
420.435059 177.0 
420.537415 205.0 
420.570038 336.0 
420.610352 241.0 
420.676514 227.0 
420.856598 223.0 
420.946533 371.0 
421.030365 162.0 
421.073242 425.0 
421.219513 220867.0 
421.318146 125.0 
421.427399 263.0 
421.487518 175.0 
421.658112 119.0 
421.743805 222.0 
421.8909 237.0 
421.934113 152.0 
421.979004 112.0 
422.103424 405.0 
422.223816 37235.0 
422.615112 259.0 
422.689697 181.0 
423.150635 74.0 
423.217987 704.0 
423.930298 91.0 
424.276703 96.0 
424.725342 220.0 
424.866333 206.0 
424.93515 211.0 
425.034668 129.0 
425.620697 145.0 
426.022003 72.0 
426.082794 84.0 
434.531952 97.0 
435.942169 76.0 
441.173523 153.0 
441.463684 111.0 
442.659912 106.0 
787.613342 104.0 
1084.548218 268.0 
1858.892334 180.0 
END IONS

BEGIN IONS
TITLE=Scan Number: 405
PEPMASS=595.16498
CHARGE=1+
MSLEVEL=2
FILENAME=A11_RA11_01_2664.mzXML
INSTRUMENT=ion trap
SCANS=405
SMILES=OCC1OC(OC2C(O)C(O)C(CO)OC2C3=C4OC(=CC(=O)C4=C(O)C=C3O)C5=CC=C(O)C=C5)C(O)C(O)C1O
INCHIKEY=FYTOTHFWELWOCG-UHFFFAOYSA-N
75.042831 143.0 
76.217216 183.0 
78.293861 177.0 
79.65052 88.0 
80.686745 302.0 
81.031311 460.0 
82.315193 162.0 
83.118393 180.0 
85.028023 1411.0 
86.019554 217.0 
87.036331 84.0 
93.876503 163.0 
97.029953 1394.0 
97.719322 283.0 
98.375183 300.0 
98.911461 167.0 
99.038063 538.0 
99.281067 359.0 
101.205147 121.0 
103.039612 187.0 
103.832771 360.0 
109.027618 401.0 
109.286133 92.0 
110.592247 156.0 
110.757843 164.0 
111.046059 287.0 
115.038467 392.0 
117.036781 210.0 
119.042099 167.0 
119.847488 202.0 
120.052895 312.0 
121.027771 3009.0 
122.03009 166.0 
122.418831 135.0 
122.900391 281.0 
122.924385 143.0 
123.04731 378.0 
125.028816 96.0 
127.037819 1048.0 
128.040115 181.0 
130.905716 107.0 
131.049728 373.0 
131.189438 138.0 
133.051437 165.0 
142.994705 221.0 
143.052338 160.0 
145.027588 399.0 
145.050247 811.0 
146.989761 147.0 
147.076874 214.0 
149.027527 369.0 
150.028519 218.0 
151.038208 121.0 
151.309998 114.0 
153.019775 609.0 
156.106903 201.0 
163.038849 1128.0 
164.80423 100.0 
165.020706 759.0 
165.258682 200.0 
171.024841 109.0 
172.033249 198.0 
174.024612 127.0 
176.037964 128.0 
177.016357 463.0 
177.091812 264.0 
181.043121 270.0 
183.024353 260.0 
187.041901 277.0 
189.051544 218.0 
193.046326 348.0 
194.05452 154.0 
194.201752 236.0 
194.804535 91.0 
195.02858 3093.0 
196.033096 215.0 
197.022873 327.0 
197.057114 304.0 
198.915649 187.0 
199.041855 87.0 
199.767212 284.0 
201.018875 164.0 
203.020462 139.0 
204.035431 128.0 
205.052399 176.0 
207.065475 196.0 
209.042694 248.0 
210.063416 202.0 
210.094666 330.0 
210.911133 173.0 
211.111679 229.0 
213.051758 196.0 
214.056305 163.0 
215.046326 321.0 
217.046906 784.0 
218.016449 138.0 
218.941956 107.0 
219.027542 121.0 
219.08139 234.0 
220.03656 563.0 
223.075882 185.0 
224.042267 83.0 
224.090775 148.0 
225.811356 276.0 
226.195801 127.0 
227.078964 169.0 
228.07135 95.0 
231.020233 156.0 
231.061142 167.0 
232.368973 139.0 
233.043015 1060.0 
233.769455 167.0 
234.533737 114.0 
235.059982 983.0 
237.035904 110.0 
239.070862 605.0 
239.675827 139.0 
241.050476 224.0 
242.063034 501.0 
242.784424 239.0 
242.99707 163.0 
243.027054 1506.0 
243.063736 1928.0 
244.031555 505.0 
245.066177 153.0 
245.544312 136.0 
247.05809 356.0 
248.965347 145.0 
249.04213 161.0 
253.078094 311.0 
253.541077 231.0 
254.266907 200.0 
255.065353 703.0 
256.074158 1671.0 
257.090576 225.0 
259.060669 448.0 
261.036804 1783.0 
262.037018 276.0 
266.022766 93.0 
266.054657 192.0 
267.066254 751.0 
268.069183 387.0 
269.066833 110.0 
270.0513 1064.0 
271.059448 26171.0 
271.291473 112.0 
271.663757 318.0 
271.939941 116.0 
272.002258 165.0 
272.063354 6544.0 
273.04248 102.0 
273.070557 407.0 
274.992798 314.0 
277.870331 198.0 
278.093567 184.0 
278.988373 93.0 
279.057159 619.0 
281.076263 118.0 
282.062836 133.0 
282.100983 212.0 
282.247253 165.0 
282.474091 117.0 
282.682678 92.0 
282.83551 149.0 
282.936157 130.0 
282.993988 396.0 
283.059021 46109.0 
283.305389 211.0 
283.873749 191.0 
283.949432 288.0 
284.007355 661.0 
284.066315 27966.0 
284.737305 155.0 
285.070129 5305.0 
285.136993 239.0 
286.079712 567.0 
286.15506 99.0 
288.319611 253.0 
289.072174 571.0 
289.462494 299.0 
289.961761 129.0 
292.823303 101.0 
293.088776 253.0 
294.082397 181.0 
294.346344 121.0 
294.571167 102.0 
295.059326 18181.0 
295.538849 204.0 
296.014343 243.0 
296.061523 2016.0 
297.073975 8929.0 
297.748688 127.0 
298.034943 493.0 
298.080078 867.0 
299.049927 723.0 
299.091125 165.0 
300.051483 78.0 
301.073364 176.0 
302.956421 235.0 
303.107117 188.0 
304.096954 94.0 
305.082794 257.0 
307.062073 1338.0 
307.104309 124.0 
308.066284 768.0 
309.075317 4455.0 
309.818848 142.0 
310.079132 531.0 
311.05426 2865.0 
311.386353 109.0 
312.063629 861.0 
312.448273 206.0 
312.724152 200.0 
312.880798 204.0 
312.919586 280.0 
312.972992 549.0 
313.069977 231051.0 
313.1492 482.0 
313.314758 205.0 
313.508545 80.0 
313.564453 204.0 
313.705902 119.0 
313.852692 88.0 
314.015839 205.0 
314.074249 32511.0 
314.19223 290.0 
314.60495 104.0 
315.076874 2834.0 
315.906525 226.0 
316.0 291.0 
316.055786 381.0 
316.281067 382.0 
316.397095 94.0 
316.684204 176.0 
318.486542 282.0 
320.023926 136.0 
320.878265 312.0 
321.075043 547.0 
322.094971 175.0 
322.97522 231.0 
323.006744 309.0 
323.049744 1750.0 
323.089722 6573.0 
324.06308 790.0 
324.095428 1021.0 
325.070374 5857.0 
325.236786 144.0 
325.652008 127.0 
326.072815 1258.0 
326.812347 168.0 
327.085876 2108.0 
328.080719 109.0 
328.108429 141.0 
328.299805 238.0 
331.847961 90.0 
334.497986 158.0 
335.060455 444.0 
337.069702 30719.0 
337.162201 109.0 
337.717163 106.0 
338.073914 3968.0 
339.082947 1251.0 
339.951813 124.0 
341.07132 855.0 
342.068573 346.0 
342.163818 121.0 
343.082336 11434.0 
343.367035 105.0 
343.418732 256.0 
343.553253 86.0 
344.087799 2143.0 
344.540222 166.0 
345.08432 129.0 
349.073273 356.0 
349.918427 187.0 
350.068848 352.0 
350.884094 109.0 
351.084717 4102.0 
351.181061 241.0 
352.089325 724.0 
353.060059 200.0 
353.103394 336.0 
354.484467 145.0 
354.599609 156.0 
355.080902 3381.0 
355.78186 190.0 
356.016174 92.0 
356.076233 612.0 
359.456207 200.0 
360.375763 100.0 
361.075928 594.0 
362.07373 153.0 
364.498749 159.0 
365.325867 227.0 
366.068726 128.0 
367.080841 7751.0 
367.159058 167.0 
367.329437 196.0 
368.088287 1189.0 
369.096893 1654.0 
370.098755 107.0 
370.409882 193.0 
372.06778 172.0 
379.079376 10362.0 
379.750031 148.0 
380.084229 2261.0 
383.503967 88.0 
385.087036 400.0 
387.11087 293.0 
391.07016 227.0 
395.481354 208.0 
395.872162 194.0 
396.913727 187.0 
396.977478 235.0 
397.034607 1149.0 
397.090942 31550.0 
397.967224 233.0 
398.096893 5682.0 
398.690186 334.0 
398.776184 82.0 
399.095734 393.0 
400.103088 195.0 
400.780304 125.0 
408.525757 96.0 
414.936035 249.0 
415.100739 45346.0 
415.194885 146.0 
415.311127 105.0 
415.462097 92.0 
416.105042 7627.0 
416.20401 162.0 
416.913452 126.0 
417.033722 332.0 
417.108521 1151.0 
417.867859 117.0 
418.110809 153.0 
418.916351 129.0 
421.594116 174.0 
422.570496 76.0 
425.432678 210.0 
425.995911 204.0 
426.827972 268.0 
428.816071 144.0 
429.232269 147.0 
432.170471 213.0 
432.309631 164.0 
432.543365 165.0 
432.740723 115.0 
432.849426 110.0 
432.940338 321.0 
433.112701 75208.0 
433.489105 110.0 
433.576324 302.0 
433.650757 211.0 
433.810638 203.0 
433.892334 169.0 
433.955261 108.0 
434.059235 587.0 
434.114563 10392.0 
434.724762 377.0 
435.04538 104.0 
435.118164 743.0 
436.463379 118.0 
436.605194 89.0 
436.636017 305.0 
436.749664 150.0 
436.87619 289.0 
437.614105 136.0 
438.082458 97.0 
438.15274 111.0 
439.107239 187.0 
447.093018 108.0 
448.086639 235.0 
457.10556 671.0 
458.113708 142.0 
461.853546 192.0 
462.092896 169.0 
474.357941 208.0 
474.716156 226.0 
475.006348 120.0 
475.124023 21199.0 
475.463928 134.0 
475.505707 150.0 
476.063995 169.0 
476.129364 3943.0 
477.023407 93.0 
477.13324 184.0 
478.032837 84.0 
478.830292 153.0 
486.672333 103.0 
541.127075 126.0 
554.149414 159.0 
559.143188 154.0 
577.158813 880.0 
578.128479 314.0 
578.678284 230.0 
579.06012 102.0 
584.276184 122.0 
585.414062 147.0 
586.197876 144.0 
593.529175 181.0 
593.945679 179.0 
594.151611 316.0 
594.745605 143.0 
594.988464 500.0 
595.050232 576.0 
595.163513 104540.0 
595.36377 403.0 
595.520386 243.0 
595.604309 171.0 
595.651978 158.0 
595.695557 129.0 
595.73584 253.0 
596.167725 23507.0 
596.367432 117.0 
596.586609 97.0 
597.172424 938.0 
597.47345 181.0 
599.059021 115.0 
599.762939 154.0 
600.196045 101.0 
600.422119 114.0 
600.759521 80.0 
618.161438 79.0 
638.10321 220.0 
652.959412 154.0 
897.417114 150.0 
END IONS

BEGIN IONS
TITLE=Scan Number: 406
PEPMASS=748.41101
CHARGE=1+
MSLEVEL=2
FILENAME=A11_RA11_01_2664.mzXML
INSTRUMENT=ion trap
SCANS=406
SMILES=CCCCC(C)C(OC(=O)CC(CC(O)=O)C(O)=O)C(CC(C)CCCCCCC(O)CC(O)C(C)NC(C)=O)OC(=O)CC(CC(O)=O)C(O)=O
INCHIKEY=GQCJWFPDXATUKS-UHFFFAOYSA-N
74.916069 68.0 
75.064659 404.0 
75.193657 76.0 
75.289131 68.0 
75.857376 245.0 
76.25737 107.0 
77.016846 131.0 
77.041931 183.0 
77.820419 188.0 
78.169128 302.0 
78.583939 151.0 
79.053535 2613.0 
80.055588 263.0 
80.413017 200.0 
81.038383 161.0 
81.06958 20052.0 
81.148651 201.0 
81.224113 147.0 
81.43261 205.0 
81.707954 69.0 
82.069313 1335.0 
82.291054 175.0 
82.337151 132.0 
82.651314 306.0 
82.932167 119.0 
83.085373 7394.0 
83.305443 131.0 
83.42038 61.0 
84.088058 1426.0 
85.027931 334.0 
85.064545 641.0 
85.100281 5856.0 
85.29007 98.0 
85.961052 97.0 
86.060425 4330.0 
86.098396 405.0 
86.207878 280.0 
87.062866 253.0 
87.504471 143.0 
88.076736 405.0 
88.738884 145.0 
89.622978 94.0 
91.054497 2111.0 
91.106209 206.0 
92.05912 135.0 
93.07061 10423.0 
93.624283 292.0 
94.069016 1557.0 
94.81842 112.0 
95.08519 24757.0 
96.03685 80.0 
96.084473 4396.0 
97.100754 5170.0 
98.063179 317.0 
98.098763 1094.0 
98.491707 331.0 
98.603943 166.0 
98.982719 93.0 
99.006454 908.0 
99.024216 230.0 
99.071426 80.0 
99.116325 107.0 
100.005569 198.0 
100.075554 4180.0 
100.113831 266.0 
101.10009 433.0 
101.176941 145.0 
101.402977 210.0 
102.089027 220.0 
104.2089 208.0 
105.043831 568.0 
105.069725 5926.0 
107.054039 138.0 
107.084625 11497.0 
107.193977 158.0 
107.238724 98.0 
107.290207 129.0 
108.06591 194.0 
108.08857 1014.0 
109.05986 257.0 
109.100586 25924.0 
109.257919 181.0 
110.102615 3512.0 
110.693306 143.0 
111.084824 743.0 
111.116699 4347.0 
111.286652 135.0 
112.075653 5090.0 
112.118279 660.0 
112.852287 149.0 
113.02285 9295.0 
113.073135 213.0 
113.094559 848.0 
113.116371 168.0 
113.720657 62.0 
114.027107 306.0 
114.090958 15594.0 
115.094009 395.0 
115.215187 275.0 
115.847679 126.0 
115.895935 74.0 
115.930664 81.0 
115.984314 143.0 
116.070229 18858.0 
116.101196 329.0 
116.147766 311.0 
117.073395 840.0 
118.079994 118.0 
119.058838 176.0 
119.084831 7205.0 
119.559891 244.0 
120.086563 436.0 
121.06926 344.0 
121.101082 15874.0 
122.104195 654.0 
122.26181 251.0 
122.330635 83.0 
123.076294 309.0 
123.116623 11433.0 
124.051285 195.0 
124.079727 597.0 
124.117691 2078.0 
124.473473 88.0 
124.546494 169.0 
125.113548 342.0 
126.053421 142.0 
126.092468 615.0 
126.130997 211.0 
126.86692 66.0 
127.081032 199.0 
127.111534 1983.0 
127.148354 212.0 
127.764969 381.0 
128.108353 702.0 
129.093643 77.0 
129.118118 159.0 
129.936737 123.0 
130.130676 158.0 
131.031723 73.0 
131.069321 201.0 
131.085999 194.0 
132.66571 248.0 
133.101196 11041.0 
134.102112 1288.0 
134.620209 113.0 
135.116699 15494.0 
135.293335 327.0 
136.11824 2592.0 
137.132782 5080.0 
138.094086 134.0 
138.128815 1908.0 
139.062622 353.0 
139.091858 227.0 
139.111069 330.0 
139.150314 594.0 
139.313171 152.0 
139.919357 132.0 
140.026016 177.0 
140.115067 132.0 
140.145599 562.0 
141.017563 18296.0 
141.087967 371.0 
141.127686 1008.0 
141.149384 362.0 
141.690216 209.0 
141.743347 342.0 
142.022552 1670.0 
142.085678 1893.0 
142.288132 169.0 
143.091629 179.0 
143.222809 166.0 
143.381027 193.0 
143.810471 93.0 
144.207733 143.0 
144.732407 227.0 
145.099365 462.0 
146.392349 259.0 
146.629929 231.0 
147.116898 13229.0 
147.834961 343.0 
147.905609 100.0 
148.121048 2119.0 
148.718811 149.0 
148.995972 229.0 
149.131516 12036.0 
149.227539 215.0 
149.526306 99.0 
150.134079 2115.0 
150.489639 105.0 
151.116913 739.0 
151.147507 6454.0 
151.38475 124.0 
152.107269 160.0 
152.148422 2678.0 
153.162704 311.0 
154.159424 136.0 
155.145065 370.0 
156.101547 2239.0 
156.141098 113.0 
157.109711 152.0 
157.696533 95.0 
158.209793 219.0 
158.635666 81.0 
158.713806 98.0 
158.768219 167.0 
159.028336 31625.0 
159.171936 68.0 
159.367569 145.0 
159.765396 182.0 
159.856903 106.0 
160.031494 1985.0 
160.125275 225.0 
160.23175 112.0 
160.732254 103.0 
161.03009 226.0 
161.131973 5812.0 
161.690704 154.0 
162.059769 219.0 
162.13588 497.0 
163.147507 6591.0 
163.283386 98.0 
164.146515 1967.0 
164.202255 243.0 
165.125092 240.0 
165.163635 2631.0 
165.224258 167.0 
165.383743 80.0 
165.540405 181.0 
166.124191 135.0 
166.159195 1338.0 
167.46965 95.0 
168.146622 419.0 
169.158325 1029.0 
169.918976 115.0 
170.158752 136.0 
170.18129 176.0 
171.134628 128.0 
173.133972 120.0 
173.48938 223.0 
174.15213 205.0 
175.147812 3268.0 
176.157028 158.0 
176.651077 143.0 
176.702789 63.0 
176.975967 153.0 
177.039062 1389.0 
177.162292 4990.0 
177.238068 122.0 
177.516815 133.0 
177.647049 87.0 
178.167999 1052.0 
179.149887 525.0 
179.180801 1265.0 
180.138611 548.0 
180.176575 836.0 
181.163452 106.0 
181.193283 145.0 
181.333923 126.0 
182.148254 412.0 
182.185867 414.0 
182.431717 137.0 
182.552094 327.0 
182.701523 186.0 
183.173874 316.0 
183.281845 172.0 
183.439377 244.0 
184.171158 200.0 
185.397888 289.0 
185.479767 99.0 
186.669739 186.0 
187.144104 225.0 
189.163101 4944.0 
190.12941 156.0 
190.175888 784.0 
191.178574 5276.0 
191.717422 250.0 
192.137604 1622.0 
192.178375 886.0 
192.506042 285.0 
192.723785 139.0 
193.139069 354.0 
193.197617 1477.0 
194.159653 396.0 
194.190598 4849.0 
195.024612 70.0 
195.160004 188.0 
195.194031 985.0 
195.233017 273.0 
195.633102 104.0 
196.169388 525.0 
196.202255 518.0 
196.897812 242.0 
197.177643 152.0 
197.208069 189.0 
197.748276 176.0 
198.151108 351.0 
198.184464 168.0 
198.201538 208.0 
200.216766 195.0 
200.384415 110.0 
201.165085 229.0 
202.115112 207.0 
202.34549 73.0 
203.179459 12714.0 
204.181824 1530.0 
205.193619 3242.0 
206.155136 449.0 
206.191299 699.0 
206.863876 244.0 
207.07486 106.0 
207.196426 741.0 
207.213272 687.0 
207.387039 113.0 
207.535004 121.0 
208.171509 407.0 
208.205841 10783.0 
209.207657 2041.0 
209.506912 104.0 
209.881256 139.0 
209.931229 117.0 
210.148788 1172.0 
210.178604 391.0 
210.223038 156.0 
210.494446 220.0 
211.155197 168.0 
211.18045 225.0 
211.227463 151.0 
211.702072 139.0 
212.160019 582.0 
212.196121 657.0 
213.087128 249.0 
214.908966 195.0 
215.174789 171.0 
217.194855 3066.0 
217.230682 100.0 
217.7668 119.0 
218.198181 578.0 
218.774368 175.0 
219.176575 138.0 
219.210342 2035.0 
220.205093 9975.0 
220.952698 80.0 
220.98732 378.0 
221.197525 2503.0 
221.232178 491.0 
222.185806 469.0 
222.220245 2009.0 
222.649155 138.0 
222.84021 121.0 
223.060043 342.0 
223.20607 626.0 
224.155411 382.0 
224.198761 852.0 
224.233093 459.0 
224.395737 159.0 
225.086395 263.0 
225.218719 459.0 
226.180878 1056.0 
226.216049 1293.0 
227.184357 151.0 
227.221924 93.0 
227.81691 157.0 
227.88562 206.0 
228.15271 94.0 
228.180115 231.0 
229.08934 196.0 
230.184814 141.0 
231.208145 2061.0 
231.311798 86.0 
232.214737 179.0 
233.37793 99.0 
233.470871 73.0 
234.13472 120.0 
234.188354 372.0 
234.221085 2307.0 
234.413147 91.0 
234.804825 295.0 
235.206573 615.0 
236.20224 1585.0 
236.237122 3256.0 
237.234451 260.0 
237.45401 288.0 
237.670364 128.0 
237.787628 75.0 
238.158951 189.0 
238.216507 12842.0 
238.784729 74.0 
239.176819 75.0 
239.218124 2024.0 
240.206284 351.0 
240.233887 385.0 
241.230377 86.0 
242.006912 65.0 
242.24379 172.0 
242.977722 117.0 
245.222351 1475.0 
246.038605 166.0 
246.231781 765.0 
247.240295 636.0 
248.199341 301.0 
248.238007 511.0 
249.226562 457.0 
249.259674 196.0 
250.077301 159.0 
250.116562 188.0 
250.216537 3746.0 
251.219849 742.0 
251.241928 584.0 
252.231949 679.0 
253.158401 89.0 
253.2388 388.0 
254.214081 1972.0 
254.248489 590.0 
255.21611 147.0 
255.250671 509.0 
256.227875 812.0 
256.761139 171.0 
258.578491 254.0 
259.0383 124.0 
259.215912 204.0 
259.241852 708.0 
260.837982 71.0 
261.259827 2433.0 
262.217133 1825.0 
262.256653 1417.0 
263.167786 127.0 
263.229156 336.0 
263.264618 245.0 
264.236237 857.0 
264.272095 409.0 
265.255554 432.0 
266.212799 1763.0 
266.245331 909.0 
267.160431 112.0 
267.24823 127.0 
268.187347 314.0 
268.227905 5558.0 
268.259491 576.0 
269.152161 123.0 
269.232605 717.0 
273.264923 142.0 
274.22525 159.0 
274.340851 132.0 
275.270721 1089.0 
276.227966 272.0 
276.270355 801.0 
276.307861 138.0 
277.240875 188.0 
277.284698 156.0 
278.248077 1421.0 
278.332611 211.0 
279.086914 178.0 
279.273682 66.0 
279.514984 74.0 
279.808105 140.0 
280.228424 6974.0 
280.270599 190.0 
280.664429 312.0 
281.197845 231.0 
281.230377 267.0 
281.284027 913.0 
282.239441 883.0 
282.275787 706.0 
283.216888 276.0 
283.262817 420.0 
284.225342 136.0 
284.653961 282.0 
285.079865 88.0 
285.279755 233.0 
286.238678 335.0 
289.288544 99.0 
289.930115 237.0 
290.242584 142.0 
291.260254 236.0 
291.30423 559.0 
292.258972 270.0 
293.278748 149.0 
294.245819 1075.0 
294.285675 231.0 
294.955902 197.0 
295.958771 150.0 
296.20224 210.0 
296.256866 1834.0 
297.265167 76.0 
297.508301 173.0 
298.186829 228.0 
298.238678 2641.0 
298.561768 222.0 
299.123993 184.0 
299.221893 462.0 
299.247772 811.0 
299.582153 141.0 
299.651459 109.0 
299.946625 91.0 
300.023254 154.0 
300.085144 186.0 
300.265869 404.0 
300.52301 321.0 
300.667267 137.0 
300.906433 138.0 
301.289062 31201.0 
301.462097 209.0 
301.525635 275.0 
301.57959 117.0 
301.64502 248.0 
301.688416 87.0 
302.150116 262.0 
302.224365 98.0 
302.293945 5098.0 
302.477692 192.0 
303.293365 416.0 
303.981903 94.0 
304.260132 66.0 
304.358551 97.0 
304.549866 70.0 
306.254974 120.0 
306.316986 724.0 
306.505463 130.0 
307.309601 164.0 
308.264374 737.0 
308.33017 897.0 
309.339111 133.0 
310.280396 142.0 
311.032593 135.0 
311.158539 227.0 
311.275055 357.0 
315.113739 178.0 
315.210083 159.0 
315.626526 92.0 
315.758972 282.0 
316.153015 196.0 
316.244415 1074.0 
316.320038 246.0 
316.51886 88.0 
317.001831 111.0 
317.284637 237.0 
317.333557 225.0 
317.588043 203.0 
317.670898 97.0 
317.89389 154.0 
317.960266 176.0 
318.005127 251.0 
318.110931 198.0 
318.16217 452.0 
318.199341 390.0 
318.315125 166787.0 
318.399811 343.0 
318.449799 130.0 
318.61377 103.0 
318.708344 151.0 
318.829651 537.0 
319.2341 353.0 
319.316528 37266.0 
319.45929 82.0 
319.520813 282.0 
319.834473 129.0 
320.314575 2987.0 
320.575195 336.0 
321.142548 114.0 
321.56308 90.0 
321.81366 216.0 
322.198181 152.0 
322.372986 140.0 
322.667328 135.0 
323.871002 134.0 
324.330109 175.0 
331.14859 140.0 
332.506958 101.0 
333.608215 89.0 
333.724457 170.0 
333.767334 93.0 
334.159363 96.0 
334.303253 188.0 
334.375488 154.0 
334.591461 128.0 
334.700745 168.0 
334.73587 168.0 
334.771851 89.0 
335.062256 190.0 
335.112152 166.0 
335.322205 143.0 
335.356659 332.0 
335.47168 451.0 
335.598114 356.0 
335.649323 413.0 
335.708588 133.0 
335.76474 352.0 
335.979767 181.0 
336.168457 200.0 
336.196564 164.0 
336.225037 623.0 
336.325958 153546.0 
336.39682 238.0 
336.455994 159.0 
336.522278 276.0 
336.648041 131.0 
336.849915 309.0 
336.919098 212.0 
337.015015 304.0 
337.265747 556.0 
337.327728 29252.0 
337.469971 105.0 
337.518494 127.0 
337.752289 163.0 
338.253723 68.0 
338.285339 212.0 
338.332855 2745.0 
338.601929 120.0 
338.795593 97.0 
339.309723 137.0 
339.352142 150.0 
339.464203 122.0 
339.575745 82.0 
339.724579 218.0 
341.026886 279.0 
342.311493 103.0 
342.922638 71.0 
343.306854 133.0 
344.933777 111.0 
346.069794 198.0 
348.327515 127.0 
350.342499 416.0 
351.596985 78.0 
352.227661 204.0 
354.237579 158.0 
354.281921 90.0 
354.335571 8244.0 
354.669525 105.0 
355.335693 2591.0 
356.301147 125.0 
357.325745 254.0 
357.834778 61.0 
358.736664 99.0 
358.812531 94.0 
358.984039 110.0 
359.025421 149.0 
359.144318 57.0 
359.26947 119.0 
359.318909 110.0 
359.634033 87.0 
359.662811 226.0 
359.838867 97.0 
360.128082 88.0 
360.173859 417.0 
360.325623 59198.0 
360.435608 57.0 
360.743439 104.0 
360.835266 236.0 
360.973419 120.0 
361.037201 75.0 
361.263855 127.0 
361.32901 12104.0 
361.738647 58.0 
361.930176 205.0 
362.285736 264.0 
362.330139 1550.0 
362.790588 199.0 
362.987152 89.0 
363.146088 94.0 
363.450256 146.0 
363.811829 106.0 
364.259308 86.0 
365.132111 158.0 
366.347626 156.0 
367.315125 136.0 
369.725006 310.0 
369.844971 71.0 
370.465759 95.0 
373.61441 152.0 
373.6362 170.0 
374.820312 138.0 
376.004242 108.0 
376.825531 104.0 
376.860748 109.0 
377.072693 210.0 
377.328278 139.0 
377.371552 159.0 
377.536652 267.0 
377.594055 214.0 
377.719635 268.0 
377.814667 80.0 
377.876465 303.0 
377.914948 293.0 
378.062469 71.0 
378.14917 328.0 
378.190704 487.0 
378.247009 824.0 
378.336548 144907.0 
378.398407 181.0 
378.460693 112.0 
378.496582 90.0 
378.644043 277.0 
378.679779 135.0 
378.78476 69.0 
378.812744 218.0 
378.950256 111.0 
379.155579 247.0 
379.279236 508.0 
379.340424 30891.0 
379.437988 117.0 
379.581787 122.0 
379.844696 156.0 
379.972839 82.0 
380.050201 140.0 
380.210358 141.0 
380.345306 3090.0 
380.5242 167.0 
380.674957 101.0 
380.835236 86.0 
381.707764 168.0 
381.753082 222.0 
382.026367 184.0 
382.075287 269.0 
382.627869 165.0 
382.799347 90.0 
382.920105 129.0 
384.245422 245.0 
384.665588 85.0 
386.431213 98.0 
392.464325 173.0 
393.308289 102.0 
393.802856 176.0 
394.020386 89.0 
394.071045 115.0 
394.427032 164.0 
394.609741 133.0 
394.683929 62.0 
395.023071 96.0 
395.132904 205.0 
395.306335 193.0 
395.460846 295.0 
395.614105 255.0 
395.683197 117.0 
395.735229 167.0 
395.957642 120.0 
396.050629 233.0 
396.187836 263.0 
396.25824 233.0 
396.347015 94378.0 
396.539917 146.0 
396.894714 133.0 
397.026855 165.0 
397.083832 132.0 
397.171082 107.0 
397.349762 17838.0 
397.539551 94.0 
397.742126 112.0 
397.807739 94.0 
397.873505 222.0 
397.915222 111.0 
398.351562 903.0 
398.414398 77.0 
398.462769 235.0 
399.083893 166.0 
399.518463 82.0 
399.86731 105.0 
399.924805 147.0 
400.068756 171.0 
400.807281 131.0 
406.728882 349.0 
410.256592 300.0 
411.08493 63.0 
411.611206 273.0 
414.049896 144.0 
414.26712 106.0 
414.357239 10984.0 
414.443756 183.0 
414.84433 70.0 
415.110413 147.0 
415.293274 87.0 
415.357239 3197.0 
415.942261 77.0 
416.306732 164.0 
416.374237 669.0 
417.575256 160.0 
418.936127 119.0 
419.218109 127.0 
431.32135 233.0 
436.165619 108.0 
439.26947 270.0 
439.301575 896.0 
440.267029 119.0 
440.308441 304.0 
440.930878 140.0 
441.285278 286.0 
442.285828 142.0 
445.772766 95.0 
452.265747 155.0 
459.315125 95.0 
460.336456 108.0 
469.311279 129.0 
470.14328 138.0 
470.307831 71.0 
472.952637 218.0 
476.329651 347.0 
477.221008 88.0 
477.32428 1963.0 
494.260742 316.0 
494.299194 554.0 
494.348358 3327.0 
495.268036 172.0 
495.336365 1684.0 
495.503448 111.0 
496.350372 282.0 
496.514801 84.0 
497.61026 215.0 
497.975037 146.0 
512.31366 178.0 
512.361877 1028.0 
513.352783 133.0 
513.389771 102.0 
514.366089 154.0 
516.286316 160.0 
518.325989 181.0 
519.347046 118.0 
535.493408 268.0 
536.090027 149.0 
536.167969 90.0 
536.214172 85.0 
536.357971 9986.0 
537.223999 63.0 
537.358521 2447.0 
537.699707 64.0 
538.111084 137.0 
538.360352 302.0 
540.639893 234.0 
541.158447 73.0 
545.424377 113.0 
546.103821 163.0 
549.767334 89.0 
550.573669 233.0 
553.051086 69.0 
554.266479 123.0 
554.369324 24200.0 
554.47699 66.0 
555.108215 73.0 
555.37085 5279.0 
556.301697 63.0 
556.370483 1285.0 
557.375061 130.0 
559.572998 75.0 
567.589722 106.0 
570.19458 113.0 
570.55127 89.0 
570.814209 218.0 
571.802673 72.0 
572.375916 20340.0 
573.382385 5694.0 
573.479492 71.0 
574.323547 242.0 
574.388733 749.0 
575.992065 103.0 
577.41803 106.0 
577.568298 181.0 
577.782349 139.0 
581.075134 116.0 
581.806641 240.0 
590.404785 711.0 
591.390869 332.0 
592.401733 140.0 
593.991821 76.0 
594.255615 76.0 
610.737549 134.0 
630.041504 176.0 
634.30365 116.0 
634.353943 752.0 
635.369324 276.0 
637.61261 238.0 
643.467102 78.0 
652.244263 142.0 
652.314758 652.0 
652.37085 3229.0 
653.369019 1127.0 
662.175964 161.0 
666.656677 92.0 
666.771484 57.0 
669.175171 275.0 
669.327698 277.0 
670.216736 57.0 
670.270447 233.0 
670.378296 8241.0 
671.293518 172.0 
671.378235 3341.0 
671.543213 65.0 
671.786865 70.0 
672.366516 317.0 
672.482788 194.0 
673.239136 93.0 
673.385193 143.0 
674.221985 258.0 
676.370667 577.0 
677.361938 143.0 
677.48175 82.0 
677.987305 146.0 
688.350098 350.0 
688.399719 591.0 
689.378418 682.0 
690.797852 111.0 
693.759338 110.0 
694.262878 130.0 
694.380676 5719.0 
695.239258 84.0 
695.284485 90.0 
695.373779 1606.0 
696.384766 520.0 
698.131409 80.0 
699.082581 114.0 
699.965271 110.0 
700.367615 103.0 
701.783325 147.0 
702.369324 114.0 
705.109497 62.0 
706.400635 253.0 
707.418701 104.0 
707.655884 59.0 
708.19574 73.0 
709.077698 59.0 
709.493408 120.0 
709.864746 63.0 
711.572571 260.0 
712.222961 254.0 
712.263733 519.0 
712.389648 61615.0 
712.531433 119.0 
712.827087 148.0 
712.957886 82.0 
713.200012 203.0 
713.267883 681.0 
713.392639 20751.0 
713.55481 267.0 
713.834595 129.0 
714.242615 87.0 
714.390686 2904.0 
714.838928 239.0 
716.769165 131.0 
716.826965 136.0 
717.132629 258.0 
717.233887 82.0 
717.29126 87.0 
717.466736 390.0 
720.678223 64.0 
720.944458 116.0 
723.103149 151.0 
723.369751 56.0 
723.739258 72.0 
724.156555 134.0 
724.664124 92.0 
724.89917 86.0 
725.550598 109.0 
725.86438 99.0 
727.308167 96.0 
727.770691 115.0 
728.450317 97.0 
728.553955 57.0 
728.924927 186.0 
728.988586 182.0 
729.195374 74.0 
729.336365 228.0 
729.40741 256.0 
729.460815 270.0 
729.810547 122.0 
730.11261 431.0 
730.19519 813.0 
730.399597 152998.0 
730.63092 322.0 
731.156128 203.0 
731.404358 46945.0 
731.625854 138.0 
732.12793 80.0 
732.237122 66.0 
732.303162 216.0 
732.407837 4985.0 
732.527283 98.0 
732.587891 134.0 
732.809692 100.0 
733.175781 63.0 
733.241943 144.0 
733.609436 115.0 
733.743042 135.0 
734.376038 67.0 
734.448669 69.0 
734.93219 141.0 
735.105103 171.0 
735.429504 160.0 
735.47876 186.0 
735.639526 131.0 
735.710327 151.0 
735.839172 101.0 
736.19928 82.0 
736.514893 180.0 
737.505615 104.0 
737.894043 113.0 
739.542908 127.0 
739.660461 56.0 
739.944885 177.0 
741.168579 153.0 
744.541809 100.0 
744.867676 88.0 
744.969299 59.0 
745.434875 86.0 
745.869324 105.0 
746.123779 101.0 
747.972168 405.0 
748.119141 148.0 
748.231445 556.0 
748.287781 757.0 
748.411499 60866.0 
748.51001 242.0 
748.766785 96.0 
749.048401 155.0 
749.12854 206.0 
749.29895 314.0 
749.414856 16175.0 
749.501709 224.0 
749.548279 75.0 
749.895996 90.0 
750.171692 161.0 
750.415955 2584.0 
750.521179 156.0 
753.051697 65.0 
753.235291 123.0 
754.391663 90.0 
755.553711 79.0 
776.374573 123.0 
778.668823 94.0 
796.008362 92.0 
813.127197 79.0 
843.012146 122.0 
853.699646 117.0 
1082.481445 224.0 
1084.1698 80.0 
1085.932129 170.0 
1096.655273 114.0 
1109.551147 260.0 
1146.936035 207.0 
1176.666382 225.0 
1233.526489 158.0 
1313.709229 102.0 
1406.672607 111.0 
1529.783569 71.0 
1616.082886 320.0 
1626.259399 355.0 
1696.05835 92.0 
1699.586792 97.0 
1712.301514 213.0 
1737.139404 149.0 
1775.559448 164.0 
1804.463501 283.0 
1828.748901 183.0 
1869.459106 238.0 
1890.592285 170.0 
1906.341431 188.0 
1933.592163 196.0 
1938.148193 238.0 
END IONS

BEGIN IONS
TITLE=Scan Number: 408
PEPMASS=342.17001
CHARGE=1+
MSLEVEL=2
FILENAME=C9_GC9_01_2621.mzXML
INSTRUMENT=ion trap
SCANS=408
SMILES=COC1=C(OC)C2=C3[C@H](CC4=C2C(OC)=C(O)C=C4)N(C)CCC3=C1
INCHIKEY=KJAVJETZYFENNG-ZDUSSCGKSA-N
75.003151 216.0 
75.361023 283.0 
75.96299 177.0 
77.095734 181.0 
77.234871 275.0 
78.665909 207.0 
78.799858 37.0 
79.020683 130.0 
81.514702 315.0 
81.968704 211.0 
82.289848 204.0 
82.450363 263.0 
83.306183 259.0 
83.673759 107.0 
84.937241 142.0 
85.749939 219.0 
86.256546 267.0 
87.462875 215.0 
87.549118 294.0 
87.952942 302.0 
89.481155 178.0 
89.74752 196.0 
89.955727 130.0 
90.13755 128.0 
90.711678 123.0 
91.247841 213.0 
92.21624 292.0 
92.336548 191.0 
92.857361 252.0 
93.240944 180.0 
93.312241 277.0 
94.224762 54.0 
96.037338 284.0 
96.075974 268.0 
96.776878 375.0 
96.901413 133.0 
97.041405 143.0 
97.480873 301.0 
97.715652 367.0 
99.041351 178.0 
99.46199 246.0 
100.38868 211.0 
100.581001 136.0 
100.627373 158.0 
101.049911 199.0 
101.898933 281.0 
101.986404 317.0 
102.372383 170.0 
102.507027 277.0 
102.584274 261.0 
102.762215 199.0 
104.345779 177.0 
104.733696 274.0 
106.408943 270.0 
106.93679 240.0 
107.057297 406.0 
107.262505 319.0 
107.545692 233.0 
107.832268 176.0 
108.423752 258.0 
109.161682 278.0 
109.493713 262.0 
109.833588 217.0 
109.991005 237.0 
110.248466 177.0 
110.292549 287.0 
110.307503 330.0 
111.517204 60.0 
111.529572 78.0 
112.017082 206.0 
112.59304 22.0 
112.686256 195.0 
114.126709 99.0 
114.272614 190.0 
114.363152 334.0 
114.574921 319.0 
114.632759 467.0 
115.054306 238.0 
115.103722 401.0 
116.058983 329.0 
117.466736 27.0 
117.641228 148.0 
117.913162 202.0 
118.606949 280.0 
119.656082 198.0 
121.685532 165.0 
121.800232 214.0 
122.137253 250.0 
122.415062 191.0 
123.303619 201.0 
123.497444 198.0 
123.703354 228.0 
123.909904 175.0 
124.535324 239.0 
124.613617 232.0 
124.853256 205.0 
125.095711 245.0 
125.950737 107.0 
126.200775 229.0 
126.982559 329.0 
128.063293 107.0 
128.118835 582.0 
128.948746 273.0 
129.991867 75.0 
130.123947 125.0 
131.050049 105.0 
131.279938 76.0 
131.572754 216.0 
131.980453 189.0 
132.904953 302.0 
133.064957 153.0 
134.361572 218.0 
134.94252 213.0 
135.049179 197.0 
135.167297 272.0 
135.224243 103.0 
135.560669 314.0 
136.536453 182.0 
136.639206 206.0 
139.050919 216.0 
139.234268 224.0 
139.400833 278.0 
141.068222 466.0 
141.528595 126.0 
141.813141 293.0 
142.076538 368.0 
142.445953 185.0 
142.494476 206.0 
142.5522 238.0 
143.044418 61.0 
143.207458 119.0 
143.678635 275.0 
143.822296 412.0 
143.901123 136.0 
144.056747 462.0 
144.500458 270.0 
146.121399 131.0 
147.721359 206.0 
148.171738 285.0 
149.245605 186.0 
149.440399 114.0 
149.819138 257.0 
150.044846 117.0 
150.238037 276.0 
151.055313 238.0 
151.613632 222.0 
151.691071 98.0 
151.846954 220.0 
152.061783 2638.0 
152.289734 192.0 
152.702393 318.0 
152.804489 150.0 
152.877609 54.0 
153.032074 78.0 
153.070007 3587.0 
153.870834 131.0 
153.919739 30.0 
154.04599 153.0 
154.074722 1988.0 
154.182648 338.0 
154.245316 411.0 
154.770065 189.0 
155.052078 695.0 
155.0858 699.0 
155.277237 89.0 
155.354263 357.0 
155.587906 84.0 
155.710876 183.0 
155.766129 255.0 
156.058594 109.0 
156.080719 51.0 
156.691269 260.0 
156.842163 288.0 
157.027451 94.0 
157.068848 758.0 
157.295288 161.0 
158.073837 210.0 
158.188797 126.0 
158.837311 289.0 
159.068085 200.0 
159.63269 181.0 
160.929047 97.0 
161.991409 293.0 
162.039459 213.0 
162.676773 256.0 
163.013321 324.0 
163.059082 97.0 
163.175781 159.0 
163.562668 188.0 
163.991669 240.0 
164.060501 380.0 
164.154083 309.0 
164.377167 312.0 
165.069565 27340.0 
165.123764 155.0 
165.254745 33.0 
165.398148 254.0 
165.52951 93.0 
165.657715 222.0 
165.901306 30.0 
166.075546 11946.0 
166.24411 186.0 
166.506226 253.0 
166.966461 306.0 
167.022522 132.0 
167.049042 1078.0 
167.0858 2604.0 
167.242264 369.0 
167.289993 94.0 
167.382126 67.0 
167.525101 350.0 
167.65947 149.0 
167.981339 155.0 
168.058014 596.0 
168.091202 808.0 
168.172943 94.0 
168.356583 137.0 
168.451874 153.0 
168.938171 81.0 
169.064316 581.0 
169.103348 170.0 
169.19278 37.0 
169.237106 246.0 
170.362595 269.0 
170.696594 182.0 
170.79805 159.0 
170.991669 93.0 
171.638611 232.0 
173.075775 567.0 
173.787949 196.0 
174.832901 236.0 
176.062729 1384.0 
176.319138 53.0 
176.383713 338.0 
177.06868 8558.0 
177.158478 264.0 
177.429062 156.0 
177.696793 208.0 
177.87146 297.0 
178.006104 291.0 
178.077271 32004.0 
178.116501 29.0 
178.15596 182.0 
178.190063 382.0 
178.679581 115.0 
178.906738 99.0 
179.055557 1694.0 
179.084976 38247.0 
179.131241 166.0 
179.334579 160.0 
179.366425 67.0 
179.463715 47.0 
179.787003 241.0 
179.878952 99.0 
179.91864 59.0 
179.990387 232.0 
180.058594 1769.0 
180.092773 13941.0 
180.368759 198.0 
180.391037 135.0 
180.462738 38.0 
180.513763 105.0 
180.627991 327.0 
180.661255 334.0 
181.064697 10052.0 
181.100571 2872.0 
181.167816 176.0 
181.301971 37.0 
181.440231 88.0 
181.524246 30.0 
181.776382 120.0 
181.989502 128.0 
182.008286 255.0 
182.072464 4877.0 
182.347 150.0 
182.7435 267.0 
182.847839 185.0 
183.046112 288.0 
183.077042 1475.0 
183.153824 92.0 
183.225723 54.0 
184.076538 187.0 
184.222488 61.0 
184.792282 215.0 
185.014999 456.0 
185.054871 168.0 
185.267548 270.0 
185.544037 204.0 
185.633896 240.0 
186.126724 232.0 
186.676575 265.0 
187.200623 375.0 
187.365738 216.0 
187.839218 300.0 
188.677567 221.0 
189.025116 164.0 
189.070175 20903.0 
189.125244 99.0 
189.480881 80.0 
189.58696 277.0 
189.811798 80.0 
189.956131 440.0 
190.077499 41317.0 
190.163681 100.0 
190.310745 114.0 
190.392593 238.0 
190.642944 68.0 
190.683792 47.0 
190.989731 252.0 
191.085464 86180.0 
191.12587 239.0 
191.16391 87.0 
191.304489 66.0 
191.388718 175.0 
191.399353 153.0 
191.568268 27.0 
191.64679 124.0 
191.710617 61.0 
191.950638 115.0 
192.05748 3502.0 
192.090408 22944.0 
192.314255 49.0 
192.35762 225.0 
192.557816 148.0 
192.700607 132.0 
192.871475 144.0 
193.064285 39529.0 
193.100677 7400.0 
193.5121 150.0 
193.631699 148.0 
193.661514 168.0 
194.072159 32657.0 
194.275986 78.0 
194.442215 109.0 
194.485992 96.0 
194.844803 108.0 
195.079758 12393.0 
195.129364 396.0 
195.237625 225.0 
195.390717 55.0 
195.447159 182.0 
195.513168 95.0 
195.5755 21.0 
195.720093 100.0 
195.816849 278.0 
196.053146 1263.0 
196.086685 3363.0 
196.312958 267.0 
196.637329 29.0 
196.881943 101.0 
197.05957 1260.0 
197.093491 2408.0 
197.465546 112.0 
197.59137 155.0 
198.064377 178.0 
198.103149 130.0 
198.655762 267.0 
198.681931 110.0 
199.07785 138.0 
199.342896 216.0 
200.04306 626.0 
200.062042 643.0 
200.084625 248.0 
200.423813 135.0 
200.743073 122.0 
201.069519 2081.0 
201.444031 274.0 
201.666 33.0 
201.843704 208.0 
202.077881 12551.0 
202.119415 324.0 
202.19696 207.0 
202.415298 281.0 
202.463287 111.0 
202.636108 319.0 
202.970825 150.0 
203.021393 301.0 
203.052841 861.0 
203.0858 12478.0 
203.164581 236.0 
203.27652 270.0 
203.948364 222.0 
204.056213 2391.0 
204.091599 3031.0 
204.43924 161.0 
204.49913 62.0 
205.011032 448.0 
205.064316 25810.0 
205.097275 3448.0 
205.159912 33.0 
205.586395 269.0 
205.649216 213.0 
205.831802 81.0 
206.072617 45465.0 
206.163803 98.0 
206.659103 45.0 
206.759491 73.0 
206.916763 396.0 
207.080231 87672.0 
207.214981 341.0 
207.272415 93.0 
207.293442 390.0 
207.450424 95.0 
207.518234 268.0 
207.591446 74.0 
207.615005 173.0 
207.749496 199.0 
207.807968 185.0 
208.03334 928.0 
208.087524 61075.0 
208.168945 44.0 
208.192429 219.0 
208.27005 187.0 
208.546494 333.0 
208.622559 182.0 
209.059875 8358.0 
209.094482 24659.0 
209.193756 76.0 
209.342606 22.0 
209.433762 114.0 
209.477112 130.0 
209.545898 42.0 
209.626419 142.0 
209.672089 269.0 
209.754303 31.0 
209.790024 100.0 
209.835846 34.0 
210.066986 13121.0 
210.098083 1663.0 
210.277298 205.0 
210.343445 94.0 
210.398712 123.0 
210.455353 52.0 
210.549789 100.0 
210.615601 130.0 
210.70224 272.0 
210.728989 143.0 
210.846146 24.0 
210.890427 85.0 
211.020706 207.0 
211.069611 3177.0 
211.172699 44.0 
211.409668 147.0 
211.515625 135.0 
212.072571 492.0 
212.10553 141.0 
212.149582 234.0 
212.36525 101.0 
212.572876 255.0 
212.965286 213.0 
213.076691 457.0 
214.043716 108.0 
214.137238 23.0 
215.039474 249.0 
215.09108 301.0 
215.209396 133.0 
215.563705 25.0 
216.142151 277.0 
216.230118 171.0 
216.533676 82.0 
216.625046 39.0 
216.675308 143.0 
216.912918 188.0 
216.939346 224.0 
216.963089 282.0 
217.027115 306.0 
217.067078 10321.0 
217.128784 50.0 
217.283554 69.0 
217.334335 26.0 
217.35704 83.0 
217.593811 78.0 
217.638107 255.0 
217.867905 23.0 
217.981827 123.0 
218.026031 285.0 
218.072586 31335.0 
218.231628 144.0 
218.425339 25.0 
218.777222 145.0 
218.910904 471.0 
218.958496 500.0 
218.991776 160.0 
219.080154 81289.0 
219.337173 30.0 
219.531921 100.0 
219.631989 156.0 
219.847229 267.0 
219.942795 338.0 
219.970383 227.0 
220.050491 5567.0 
220.087143 35849.0 
220.152405 150.0 
220.268402 193.0 
220.617386 354.0 
220.688766 231.0 
220.804214 200.0 
220.900833 126.0 
220.967728 128.0 
221.059799 61191.0 
221.095016 21226.0 
221.211304 50.0 
221.316544 134.0 
221.410187 167.0 
221.498688 54.0 
221.678391 59.0 
221.77063 188.0 
221.796661 158.0 
221.975327 438.0 
222.0047 401.0 
222.066498 38492.0 
222.102127 5169.0 
222.205887 29.0 
222.303055 94.0 
222.348694 110.0 
222.393295 156.0 
222.430298 123.0 
222.573837 155.0 
222.631912 288.0 
222.738663 245.0 
222.781891 353.0 
222.911987 69.0 
222.98114 129.0 
223.041946 2005.0 
223.073212 12905.0 
223.111588 10554.0 
223.256714 84.0 
223.349915 50.0 
223.39949 63.0 
223.445496 79.0 
223.544174 143.0 
223.563858 118.0 
223.82605 50.0 
224.082916 14311.0 
224.451187 93.0 
224.482727 30.0 
224.573853 106.0 
224.870575 164.0 
225.090591 13155.0 
225.133408 47.0 
225.221191 303.0 
225.442642 61.0 
225.663284 114.0 
225.789948 61.0 
225.85997 135.0 
226.058792 2653.0 
226.09549 3109.0 
226.237457 157.0 
226.611862 82.0 
226.78685 178.0 
226.983841 308.0 
227.068604 841.0 
227.145615 288.0 
227.345795 196.0 
227.673355 231.0 
227.899033 174.0 
227.965561 246.0 
228.004745 251.0 
228.087952 306.0 
228.980759 168.0 
229.040268 499.0 
229.073486 3717.0 
229.259415 157.0 
229.414108 139.0 
229.58963 226.0 
229.666718 104.0 
229.750076 77.0 
229.903549 115.0 
230.075851 1504.0 
230.358261 226.0 
230.528107 332.0 
230.795151 181.0 
230.839005 179.0 
230.987076 156.0 
231.081085 27002.0 
231.481033 35.0 
231.505356 29.0 
232.047104 559.0 
232.08493 6791.0 
232.848236 37.0 
232.953781 212.0 
233.006943 334.0 
233.058624 16911.0 
233.094238 8312.0 
233.158356 187.0 
233.198547 132.0 
233.305817 282.0 
233.404892 142.0 
233.442352 183.0 
233.8349 103.0 
234.067657 17789.0 
234.097855 3057.0 
234.14949 67.0 
234.213013 180.0 
234.243256 123.0 
234.326157 66.0 
234.356781 406.0 
234.6035 99.0 
234.793793 133.0 
234.832916 118.0 
234.942215 223.0 
235.075867 110055.0 
235.185654 87.0 
235.242462 206.0 
235.304123 140.0 
235.342621 114.0 
235.438217 126.0 
235.566101 166.0 
235.734894 109.0 
235.80864 98.0 
235.856995 235.0 
235.892471 156.0 
235.933929 443.0 
236.08284 249158.0 
236.24379 256.0 
236.27002 204.0 
236.379028 193.0 
236.398254 159.0 
236.436691 280.0 
236.592026 58.0 
236.61319 52.0 
236.660156 192.0 
236.701447 192.0 
236.766861 38.0 
236.845642 164.0 
236.862823 173.0 
236.936264 65.0 
237.089951 141664.0 
237.1577 115.0 
237.188965 45.0 
237.237686 71.0 
237.279694 195.0 
237.329117 500.0 
237.415466 71.0 
237.437195 97.0 
237.477768 81.0 
237.523727 53.0 
237.606766 96.0 
237.74054 301.0 
237.890015 55.0 
237.932083 502.0 
237.977524 390.0 
238.062027 102676.0 
238.156586 63.0 
238.174545 77.0 
238.229614 199.0 
238.335846 238.0 
238.541473 116.0 
238.554428 101.0 
238.600586 117.0 
238.648422 127.0 
238.696884 78.0 
238.738922 309.0 
238.816971 100.0 
238.843781 83.0 
238.865128 169.0 
238.90921 150.0 
238.96138 286.0 
238.982819 260.0 
239.067276 16150.0 
239.103119 2590.0 
239.146088 377.0 
239.194778 55.0 
239.239578 106.0 
239.324463 263.0 
239.449615 61.0 
239.637619 318.0 
239.711304 124.0 
239.778763 138.0 
239.799896 161.0 
239.848068 66.0 
239.888428 107.0 
239.914688 67.0 
239.937317 114.0 
239.961395 84.0 
240.07634 1150.0 
240.110931 404.0 
240.172836 50.0 
240.230637 63.0 
240.298325 54.0 
240.654922 365.0 
240.795303 157.0 
240.852219 36.0 
240.882553 208.0 
240.954849 174.0 
241.000885 192.0 
241.046417 230.0 
241.085236 2454.0 
241.299042 301.0 
241.401596 64.0 
242.084976 281.0 
242.824448 391.0 
242.870544 118.0 
243.106369 192.0 
243.527817 236.0 
243.765869 92.0 
243.917511 137.0 
244.086151 129.0 
244.122772 41.0 
244.248398 141.0 
244.336792 206.0 
244.475372 54.0 
244.598389 219.0 
244.771744 47.0 
245.059998 2352.0 
245.4496 41.0 
245.567322 176.0 
245.792923 93.0 
245.888947 87.0 
246.016037 143.0 
246.067184 13048.0 
246.187912 202.0 
246.240784 57.0 
246.334549 237.0 
246.371933 79.0 
246.412689 58.0 
246.509903 52.0 
246.584335 169.0 
246.608551 153.0 
246.690445 65.0 
246.793503 113.0 
246.822174 85.0 
246.861404 251.0 
246.922119 24.0 
246.973969 496.0 
247.008682 972.0 
247.075195 135415.0 
247.145966 118.0 
247.180923 91.0 
247.32486 370.0 
247.380875 50.0 
247.407318 125.0 
247.455154 118.0 
247.811813 80.0 
247.876434 48.0 
247.910339 64.0 
247.937546 312.0 
247.974228 70.0 
248.082382 152972.0 
248.265991 327.0 
248.330521 421.0 
248.461411 271.0 
248.51004 135.0 
248.545563 77.0 
248.564957 110.0 
248.682449 39.0 
248.811539 46.0 
248.940613 145.0 
249.054993 21827.0 
249.088745 35949.0 
249.145203 411.0 
249.199661 37.0 
249.220734 124.0 
249.249466 19.0 
249.280289 643.0 
249.332733 381.0 
249.507202 332.0 
249.587509 219.0 
249.611908 73.0 
249.641754 108.0 
249.72142 116.0 
249.80159 71.0 
249.930405 267.0 
249.971802 308.0 
250.059814 8355.0 
250.098831 10652.0 
250.22496 73.0 
250.61171 128.0 
250.636185 192.0 
250.671524 155.0 
250.696167 110.0 
250.740662 362.0 
250.803696 118.0 
250.838455 223.0 
250.895401 76.0 
250.942001 343.0 
250.973816 157.0 
251.008789 87.0 
251.071732 10409.0 
251.106659 71077.0 
251.194138 55.0 
251.367188 145.0 
251.423447 224.0 
251.515991 37.0 
251.652283 100.0 
251.736572 38.0 
251.801285 91.0 
251.827087 109.0 
251.945847 128.0 
252.07811 11304.0 
252.108673 8932.0 
252.163422 87.0 
252.20079 30.0 
252.246109 31.0 
252.571548 58.0 
252.598831 139.0 
252.627151 204.0 
252.675446 351.0 
252.804733 33.0 
252.873901 121.0 
252.940186 619.0 
253.018097 629.0 
253.08606 132907.0 
253.216003 169.0 
253.306824 76.0 
253.35321 70.0 
253.405914 157.0 
253.490631 51.0 
253.545181 156.0 
253.64978 268.0 
253.681732 174.0 
253.793961 221.0 
253.965851 50.0 
253.987061 36.0 
254.016815 147.0 
254.090027 23919.0 
254.751541 277.0 
255.015945 143.0 
255.092209 999.0 
255.261673 231.0 
255.323288 78.0 
255.43367 37.0 
255.502502 130.0 
255.568771 153.0 
255.692123 79.0 
255.747925 424.0 
255.810104 66.0 
255.839081 51.0 
255.867279 60.0 
255.905579 46.0 
255.982834 121.0 
256.056305 435.0 
256.088287 366.0 
256.437225 70.0 
256.509583 167.0 
256.588257 29.0 
256.719513 321.0 
256.858521 69.0 
256.895081 75.0 
256.980713 89.0 
257.349365 139.0 
257.56366 115.0 
257.799988 30.0 
258.182343 211.0 
258.569855 372.0 
258.785522 214.0 
259.072266 241.0 
259.400543 276.0 
259.478485 70.0 
259.540436 38.0 
259.63913 210.0 
260.044769 227.0 
260.111023 96.0 
260.320587 152.0 
260.959686 216.0 
261.011597 130.0 
261.051208 262.0 
261.0914 9155.0 
261.742401 110.0 
261.812256 114.0 
262.061768 1306.0 
262.098083 10282.0 
262.197449 55.0 
262.241425 72.0 
262.317932 101.0 
262.814972 74.0 
262.876038 162.0 
262.899719 233.0 
262.939758 186.0 
263.00705 695.0 
263.070007 49631.0 
263.212341 170.0 
263.301605 80.0 
263.491394 127.0 
263.543457 51.0 
263.875763 241.0 
263.955292 222.0 
264.077698 136875.0 
264.169708 176.0 
264.205505 249.0 
264.273315 283.0 
264.353668 380.0 
264.387543 119.0 
264.4422 157.0 
264.475922 350.0 
264.565033 346.0 
264.619904 178.0 
264.731293 321.0 
264.796997 101.0 
264.855896 146.0 
264.924622 273.0 
265.085541 266313.0 
265.183502 40.0 
265.212402 145.0 
265.257477 40.0 
265.279755 88.0 
265.35144 241.0 
265.376129 459.0 
265.441437 74.0 
265.483978 136.0 
265.543304 191.0 
265.647217 203.0 
265.684204 47.0 
265.759949 192.0 
265.796021 69.0 
265.819275 38.0 
265.849731 72.0 
265.911255 54.0 
265.972107 76.0 
266.059692 9984.0 
266.090149 37759.0 
266.190796 104.0 
266.228149 174.0 
266.323547 313.0 
266.497223 221.0 
266.590393 260.0 
266.681915 29.0 
266.732788 90.0 
266.783112 200.0 
266.867676 52.0 
266.903412 170.0 
266.970001 574.0 
267.017487 295.0 
267.100372 23990.0 
267.178406 41.0 
267.204041 56.0 
267.440613 217.0 
267.526093 50.0 
267.708221 147.0 
267.797333 180.0 
267.858734 83.0 
267.897156 296.0 
267.921448 204.0 
268.011505 247.0 
268.066772 526.0 
268.105164 9777.0 
268.164001 46.0 
268.194916 117.0 
268.247314 140.0 
268.651917 133.0 
269.075592 2446.0 
269.113037 1168.0 
269.280273 42.0 
269.775116 31.0 
270.087311 593.0 
270.765594 42.0 
270.831757 146.0 
270.952911 181.0 
271.09494 687.0 
272.126801 124.0 
272.160095 302.0 
272.212891 153.0 
273.407562 235.0 
274.25354 213.0 
275.405823 26.0 
275.573212 93.0 
275.622345 88.0 
275.875244 118.0 
275.966553 87.0 
276.020782 84.0 
276.253235 189.0 
276.79834 326.0 
276.948425 132.0 
277.031586 233.0 
277.085266 7160.0 
277.12204 311.0 
277.317719 27.0 
277.475769 62.0 
277.545593 117.0 
277.738342 42.0 
277.84668 118.0 
277.903687 105.0 
278.009796 94.0 
278.095032 7043.0 
278.183563 452.0 
278.259338 59.0 
278.318695 55.0 
278.386597 272.0 
278.418945 155.0 
278.449249 164.0 
278.482849 36.0 
278.51947 60.0 
278.555328 196.0 
278.576538 249.0 
278.633453 97.0 
278.697113 215.0 
278.731781 238.0 
278.78363 78.0 
278.844482 91.0 
278.878357 443.0 
278.928955 33.0 
278.965942 209.0 
279.101776 287605.0 
279.18866 233.0 
279.253723 55.0 
279.335754 43.0 
279.361938 68.0 
279.420441 129.0 
279.457062 93.0 
279.505402 77.0 
279.540863 270.0 
279.574646 159.0 
279.67572 34.0 
279.706573 221.0 
279.755951 139.0 
279.809967 90.0 
279.941254 122.0 
279.981506 203.0 
280.012848 371.0 
280.10849 130613.0 
280.222839 190.0 
280.268036 150.0 
280.30365 70.0 
280.37207 122.0 
280.416107 66.0 
280.465027 31.0 
280.524536 239.0 
280.553436 169.0 
280.604492 157.0 
280.63385 227.0 
280.668884 343.0 
280.741943 161.0 
280.784668 304.0 
280.83139 45.0 
280.864807 289.0 
280.915436 110.0 
280.947449 296.0 
281.081116 126150.0 
281.183838 71.0 
281.248596 27.0 
281.316895 278.0 
281.382996 144.0 
281.525818 60.0 
281.696869 134.0 
281.764557 167.0 
281.873077 59.0 
281.89975 81.0 
282.084564 19081.0 
282.142456 397.0 
282.191101 314.0 
282.224792 39.0 
282.250305 63.0 
282.327301 24.0 
282.480591 141.0 
282.648834 51.0 
282.78891 58.0 
282.857269 95.0 
282.930389 183.0 
283.084717 727.0 
283.1604 93.0 
283.220612 146.0 
283.241058 137.0 
283.384674 144.0 
283.617889 106.0 
283.724274 128.0 
283.84494 98.0 
284.029663 114.0 
284.067505 130.0 
284.103394 3083.0 
284.220551 48.0 
284.572662 68.0 
284.848663 99.0 
284.965485 72.0 
285.111542 495.0 
285.19519 143.0 
286.103424 43.0 
286.127655 258.0 
286.170349 32.0 
286.249298 102.0 
287.344269 24.0 
287.968842 99.0 
289.378235 32.0 
289.504578 75.0 
290.000549 169.0 
291.250366 58.0 
291.553345 71.0 
292.918396 62.0 
293.086151 219.0 
293.127106 170.0 
293.747192 124.0 
294.11853 1414.0 
294.902008 91.0 
295.09375 2584.0 
295.229797 87.0 
295.381226 155.0 
295.509796 276.0 
295.708588 32.0 
295.750092 93.0 
295.777222 80.0 
295.796326 100.0 
295.943573 158.0 
295.988892 182.0 
296.023041 208.0 
296.104553 103277.0 
296.190216 32.0 
296.296722 31.0 
296.42804 289.0 
296.511292 114.0 
296.641083 33.0 
297.107513 11723.0 
297.483673 106.0 
297.841766 44.0 
298.123077 1540.0 
298.486816 109.0 
299.088257 335.0 
299.125183 1607.0 
299.21637 128.0 
300.128723 278.0 
300.413666 237.0 
300.452454 85.0 
300.799591 97.0 
302.383118 22.0 
303.361603 237.0 
303.671173 83.0 
304.625488 125.0 
307.234528 124.0 
308.602905 26.0 
308.666534 51.0 
309.005005 235.0 
309.655334 114.0 
309.939484 221.0 
310.125092 551.0 
310.304779 260.0 
310.572174 38.0 
310.760223 83.0 
310.945587 227.0 
311.039917 263.0 
311.127747 137491.0 
311.36734 195.0 
311.532501 37.0 
311.79892 230.0 
311.955627 114.0 
312.130219 16623.0 
312.308563 161.0 
312.478943 131.0 
313.141174 1825.0 
314.111389 75.0 
314.166229 331.0 
314.249512 96.0 
314.321472 62.0 
314.361053 189.0 
314.498657 25.0 
314.734161 116.0 
315.818787 42.0 
317.45108 65.0 
322.340729 45.0 
325.1362 455.0 
325.211151 23.0 
335.921021 94.0 
340.150482 237.0 
341.771149 76.0 
341.805664 228.0 
341.874329 159.0 
341.939514 156.0 
342.071777 242.0 
342.169952 50830.0 
342.223633 171.0 
342.999634 241.0 
343.108429 132.0 
343.17453 5295.0 
345.512573 62.0 
345.614532 31.0 
355.579041 201.0 
370.035767 34.0 
409.492279 31.0 
413.590271 100.0 
439.548706 57.0 
459.994812 52.0 
503.288849 75.0 
604.005066 72.0 
665.320312 68.0 
674.874084 42.0 
689.935852 23.0 
698.327698 54.0 
773.919006 42.0 
911.505737 132.0 
990.823792 61.0 
1041.769531 87.0 
1043.268677 88.0 
1064.247803 199.0 
1133.525391 40.0 
1310.18042 100.0 
1358.205933 57.0 
1404.953979 75.0 
1570.456665 213.0 
1657.242554 236.0 
1670.126343 216.0 
1716.571289 151.0 
1722.774536 115.0 
1794.887451 313.0 
1821.418457 195.0 
1836.367432 149.0 
1841.762085 24.0 
1850.870972 202.0 
1869.603271 163.0 
1912.830078 107.0 
1935.084229 48.0 
1944.432495 285.0 
1952.610229 194.0 
1969.814819 246.0 
1982.974487 373.0 
1987.588257 239.0 
1996.365234 237.0 
1999.282349 273.0 
2001.231201 115.0 
2004.18457 154.0 
END IONS

BEGIN IONS
TITLE=Scan Number: 410
PEPMASS=521.20099
CHARGE=1+
MSLEVEL=2
FILENAME=C9_GC9_01_2621.mzXML
INSTRUMENT=ion trap
SCANS=410
SMILES=CCCCCC[C@H](O)[C@@H]1[C@H](O)C2=C(C[C@H](CC3=C1C(=O)OC3O)[C@@H](O)C4CC=CC(=O)O4)C(=O)OC2=O
INCHIKEY=XOEFANNJIKAWGX-BTBZVGSOSA-N
79.056244 191.0 
82.030945 236.0 
83.082893 283.0 
93.070244 148.0 
93.483429 194.0 
95.015244 573.0 
95.043137 152.0 
99.049332 252.0 
104.059517 177.0 
105.065575 350.0 
109.10244 203.0 
115.055504 169.0 
117.071793 133.0 
118.040871 312.0 
118.074074 230.0 
119.053734 134.0 
119.086525 211.0 
122.036797 210.0 
123.044884 409.0 
127.040665 169.0 
128.071915 259.0 
129.073868 787.0 
131.048477 98.0 
131.087006 421.0 
132.056549 146.0 
133.029343 202.0 
133.060959 155.0 
135.037064 145.0 
143.041061 137.0 
145.065262 566.0 
149.06279 445.0 
150.103302 187.0 
154.068741 218.0 
155.083145 777.0 
157.074005 238.0 
160.049438 154.0 
161.059265 316.0 
163.036346 216.0 
164.059967 377.0 
165.064468 198.0 
165.121902 174.0 
166.081665 399.0 
167.089432 450.0 
169.071091 151.0 
169.094528 179.0 
170.080856 151.0 
170.105789 220.0 
171.046982 769.0 
171.075714 360.0 
174.069122 175.0 
175.04277 177.0 
175.07251 340.0 
177.046509 178.0 
177.069687 155.0 
177.119492 158.0 
178.078262 178.0 
179.08429 701.0 
180.090744 385.0 
181.067917 283.0 
181.098938 482.0 
183.045944 155.0 
183.078629 309.0 
183.357803 146.0 
184.053619 270.0 
184.092041 136.0 
185.059265 442.0 
185.126038 183.0 
187.040802 457.0 
187.075195 276.0 
189.069916 141.0 
193.102432 162.0 
194.066711 188.0 
194.10907 274.0 
194.746689 121.0 
195.045166 229.0 
195.083023 687.0 
196.090057 167.0 
197.04921 176.0 
197.099762 688.0 
197.670044 140.0 
198.060486 172.0 
199.074997 307.0 
199.140533 179.0 
200.04393 311.0 
201.048157 380.0 
202.080078 172.0 
203.034882 160.0 
205.062469 635.0 
206.064835 267.0 
207.079712 1355.0 
207.135437 145.0 
208.128113 184.0 
209.076202 162.0 
209.132629 209.0 
210.064606 175.0 
211.03833 469.0 
211.075653 263.0 
211.114502 209.0 
211.146545 481.0 
213.001816 126.0 
213.02655 181.0 
213.057129 212.0 
213.089539 155.0 
213.118164 221.0 
215.032959 529.0 
215.071198 455.0 
215.108215 346.0 
216.088593 179.0 
217.070221 456.0 
219.014404 269.0 
220.091171 264.0 
221.055603 261.0 
222.074966 198.0 
222.111267 113.0 
222.996536 158.0 
223.072922 442.0 
223.132156 181.0 
225.055771 308.0 
225.090118 361.0 
226.087524 155.0 
227.029465 163.0 
227.068634 545.0 
228.039124 363.0 
229.083817 153.0 
229.16272 166.0 
232.086273 192.0 
233.056946 412.0 
235.079132 458.0 
237.077499 429.0 
238.091019 311.0 
238.13327 114.0 
239.074478 197.0 
239.142914 365.0 
241.051224 334.0 
241.084869 140.0 
242.094208 143.0 
242.99118 283.0 
243.032227 203.0 
243.119385 142.0 
244.038025 95.0 
245.005127 107.0 
245.056747 145.0 
245.092148 242.0 
247.023468 123.0 
248.090027 581.0 
249.06813 105.0 
251.039734 439.0 
251.075043 929.0 
252.042221 193.0 
253.059982 125.0 
254.105194 177.0 
255.059509 272.0 
257.049286 161.0 
257.158844 390.0 
259.027313 248.0 
259.072876 175.0 
259.145111 123.0 
261.055176 472.0 
262.029419 179.0 
262.058868 251.0 
263.068298 827.0 
263.109558 166.0 
264.076294 188.0 
264.112366 115.0 
265.052063 582.0 
267.136932 601.0 
268.062286 177.0 
268.141907 91.0 
269.043945 169.0 
269.086029 340.0 
271.018463 354.0 
271.100037 117.0 
272.09787 109.0 
273.050385 159.0 
273.15509 174.0 
274.063965 85.0 
275.075012 185.0 
275.579681 190.0 
277.084656 301.0 
279.063843 1270.0 
280.026489 131.0 
280.113953 134.0 
280.141998 207.0 
281.07962 1122.0 
281.154846 285.0 
282.084656 187.0 
282.410736 296.0 
283.100311 396.0 
285.122375 377.0 
287.067383 324.0 
289.041473 231.0 
290.055298 457.0 
291.065704 425.0 
293.112976 172.0 
294.163635 209.0 
295.09967 107.0 
295.130707 878.0 
297.075684 845.0 
299.1315 184.0 
299.165466 85.0 
302.062836 164.0 
302.163818 208.0 
302.52182 117.0 
302.853729 289.0 
303.059387 113.0 
303.097168 134.0 
303.170135 173.0 
304.181274 98.0 
305.059784 276.0 
305.15564 143.0 
306.152557 210.0 
307.061188 508.0 
307.134796 153.0 
307.273102 198.0 
308.066833 353.0 
309.110199 99.0 
309.153503 145.0 
311.053467 211.0 
311.131775 1079.0 
312.135864 127.0 
313.144043 761.0 
314.15918 145.0 
315.082031 555.0 
315.138489 146.0 
316.068359 99.0 
317.099579 219.0 
323.086914 166.0 
323.20462 102.0 
325.069214 2630.0 
326.068817 350.0 
327.07019 121.0 
327.120514 305.0 
327.156067 188.0 
329.096405 146.0 
329.133606 292.0 
330.129456 133.0 
331.088348 246.0 
333.132843 176.0 
335.059357 252.0 
335.097229 94.0 
336.142883 218.0 
337.108154 170.0 
337.171753 157.0 
338.173767 258.0 
339.120148 278.0 
339.197021 121.0 
341.14679 127.0 
343.033325 187.0 
343.083374 262.0 
347.164581 386.0 
348.163239 200.0 
349.188171 257.0 
351.203094 285.0 
352.171875 202.0 
353.069519 446.0 
354.069031 157.0 
355.062256 146.0 
356.184296 100.0 
358.138214 513.0 
359.170013 306.0 
360.170044 107.0 
361.102509 263.0 
363.120941 130.0 
365.168823 354.0 
367.127777 179.0 
367.188568 146.0 
371.076965 1915.0 
371.447998 130.0 
372.157135 153.0 
373.099823 444.0 
375.160461 1101.0 
376.160309 223.0 
377.176392 244.0 
378.186951 247.0 
379.152832 194.0 
380.190063 185.0 
381.091095 299.0 
385.14325 111.0 
385.203217 150.0 
389.083466 1095.0 
389.141937 154.0 
390.160187 131.0 
392.397522 83.0 
393.16806 1228.0 
394.092255 130.0 
394.170685 166.0 
395.180725 134.0 
396.970978 130.0 
397.176056 237.0 
403.14444 391.0 
403.205414 192.0 
404.154236 155.0 
405.179108 85.0 
407.15271 162.0 
411.186493 798.0 
413.19577 690.0 
421.166748 1187.0 
422.168365 296.0 
423.17569 116.0 
423.221558 163.0 
431.14798 455.0 
432.141083 177.0 
436.135132 221.0 
439.177246 1669.0 
440.184174 257.0 
441.193695 242.0 
449.158051 1447.0 
450.168365 180.0 
451.161804 91.0 
457.186157 138.0 
467.09494 153.0 
467.168457 2971.0 
468.179291 313.0 
485.18338 1188.0 
485.233246 115.0 
486.202271 240.0 
1838.925415 322.0 
END IONS

BEGIN IONS
TITLE=Scan Number: 411
PEPMASS=538.22803
CHARGE=1+
MSLEVEL=2
FILENAME=C9_GC9_01_2621.mzXML
INSTRUMENT=ion trap
SCANS=411
SMILES=CCCCCC[C@H](O)[C@@H]1[C@H](O)C2=C(C[C@H](CC3=C1C(=O)OC3O)[C@@H](O)C4CC=CC(=O)O4)C(=O)OC2=O
INCHIKEY=XOEFANNJIKAWGX-BTBZVGSOSA-N
79.055382 182.0 
80.056282 324.0 
80.996506 258.0 
81.03405 961.0 
81.071251 265.0 
81.316147 161.0 
83.038574 119.0 
83.084106 176.0 
85.099678 209.0 
91.051712 132.0 
93.072174 459.0 
95.041115 127.0 
95.087311 139.0 
97.029701 770.0 
97.100082 252.0 
99.044594 481.0 
103.052528 205.0 
105.035034 357.0 
105.051819 303.0 
105.557961 211.0 
107.084869 292.0 
109.031242 797.0 
109.101021 360.0 
113.096039 631.0 
117.067535 326.0 
118.074142 183.0 
119.048683 204.0 
121.029541 244.0 
121.102646 285.0 
121.551506 237.0 
123.044601 290.0 
124.082504 220.0 
127.041893 514.0 
128.064804 159.0 
128.249252 193.0 
129.073196 272.0 
130.623123 88.0 
131.048172 571.0 
131.083389 349.0 
133.024567 221.0 
133.062057 136.0 
135.04007 106.0 
135.11412 168.0 
136.048859 365.0 
141.070648 750.0 
142.072144 327.0 
143.053116 245.0 
145.066711 534.0 
147.043716 540.0 
148.091125 90.0 
148.123764 139.0 
149.02327 220.0 
149.060013 165.0 
152.065063 89.0 
153.069183 514.0 
154.079025 123.0 
155.087326 580.0 
156.092102 253.0 
157.064545 597.0 
157.101471 142.0 
159.04689 857.0 
159.12149 179.0 
160.124161 140.0 
161.056366 215.0 
161.130463 141.0 
163.038803 378.0 
163.100067 146.0 
165.015625 240.0 
165.069443 534.0 
165.127975 213.0 
166.078247 606.0 
167.047028 196.0 
167.084976 1188.0 
169.028488 141.0 
169.063858 919.0 
169.100204 133.0 
170.075806 167.0 
171.042191 547.0 
171.0784 562.0 
172.049866 366.0 
173.055252 984.0 
175.047989 181.0 
175.073792 307.0 
177.07019 296.0 
178.083206 105.0 
179.048935 169.0 
179.085876 2394.0 
180.096039 221.0 
181.011185 236.0 
181.06311 298.0 
181.100891 785.0 
181.529373 112.0 
182.073929 228.0 
183.047928 213.0 
183.077225 779.0 
183.119568 207.0 
184.05188 184.0 
185.060959 139.0 
185.089127 140.0 
185.127914 148.0 
187.041122 1279.0 
187.116943 98.0 
187.149719 328.0 
188.042404 240.0 
189.055176 401.0 
189.087128 167.0 
189.131012 214.0 
190.084015 205.0 
191.030243 383.0 
191.085861 667.0 
192.096313 125.0 
193.004776 341.0 
193.104736 252.0 
194.072983 133.0 
194.105362 157.0 
195.079514 613.0 
196.084595 151.0 
196.139938 159.0 
197.022217 122.0 
197.06134 508.0 
197.095703 562.0 
198.984467 203.0 
199.038849 505.0 
199.075974 495.0 
199.107193 137.0 
201.055099 493.0 
201.094559 183.0 
203.034027 106.0 
203.080597 645.0 
205.05278 895.0 
205.093964 205.0 
205.784393 143.0 
206.049942 195.0 
206.107422 344.0 
207.081726 3004.0 
208.086365 509.0 
209.060501 577.0 
209.095932 516.0 
209.123352 375.0 
210.063965 151.0 
211.038986 234.0 
211.071289 499.0 
211.108673 146.0 
211.148819 194.0 
212.074615 217.0 
212.115128 113.0 
213.021973 330.0 
213.085129 209.0 
214.063721 128.0 
214.16301 355.0 
215.032288 765.0 
216.044388 159.0 
217.053894 991.0 
217.105225 290.0 
219.081528 407.0 
220.064926 101.0 
220.085526 387.0 
221.061661 482.0 
221.09697 159.0 
222.103806 142.0 
223.075073 1890.0 
223.153595 574.0 
224.084381 248.0 
225.019455 197.0 
225.05307 1046.0 
225.092865 645.0 
225.135971 175.0 
226.016418 124.0 
226.059845 186.0 
227.035217 343.0 
227.066208 469.0 
227.105972 224.0 
227.134659 254.0 
229.045929 143.0 
229.15686 336.0 
229.989075 109.0 
230.114288 143.0 
231.083755 339.0 
232.116623 146.0 
233.063538 963.0 
233.092041 428.0 
233.145325 287.0 
234.067429 287.0 
234.096985 266.0 
235.074127 1996.0 
235.121719 156.0 
236.054825 134.0 
236.079895 123.0 
237.055573 404.0 
237.093872 188.0 
237.127747 405.0 
238.09906 460.0 
239.068054 364.0 
239.143753 395.0 
240.052002 189.0 
240.461304 180.0 
241.086914 974.0 
242.096375 224.0 
243.026428 578.0 
243.097351 304.0 
244.034271 495.0 
244.099625 235.0 
245.011765 186.0 
245.052979 583.0 
245.085892 724.0 
245.123428 225.0 
247.069977 193.0 
247.107178 315.0 
248.053207 370.0 
249.056503 216.0 
249.091354 84.0 
249.131668 332.0 
250.095337 217.0 
251.072525 2706.0 
251.138474 114.0 
252.077118 657.0 
253.054703 435.0 
253.085602 358.0 
253.15416 389.0 
253.192169 159.0 
254.127991 308.0 
255.06752 344.0 
255.101532 422.0 
255.133133 263.0 
257.084808 281.0 
257.153748 408.0 
258.101257 257.0 
258.968506 204.0 
259.080688 151.0 
261.05426 1502.0 
261.090057 276.0 
261.129456 187.0 
262.04834 129.0 
263.069916 1497.0 
263.133148 215.0 
263.607239 111.0 
264.07074 164.0 
264.158783 134.0 
265.048004 443.0 
265.09726 451.0 
265.146088 242.0 
266.136292 226.0 
267.027161 117.0 
267.061157 417.0 
267.104797 160.0 
267.139282 1098.0 
268.031128 152.0 
268.136108 120.0 
269.036316 156.0 
269.079224 759.0 
269.170319 203.0 
270.115204 165.0 
270.153717 105.0 
271.022858 381.0 
271.128784 132.0 
272.112122 248.0 
273.055359 276.0 
273.098633 232.0 
273.154938 203.0 
274.097778 135.0 
275.020599 192.0 
275.114502 124.0 
275.189697 143.0 
276.062775 163.0 
277.083496 601.0 
277.124542 169.0 
278.05423 144.0 
279.062256 797.0 
279.111328 97.0 
279.137787 290.0 
280.04129 152.0 
280.068573 363.0 
281.012604 226.0 
281.081604 3566.0 
281.152527 284.0 
282.087799 976.0 
283.129791 984.0 
283.68985 287.0 
285.074799 130.0 
285.150085 424.0 
286.164215 401.0 
287.095245 141.0 
289.047028 774.0 
289.126312 431.0 
290.048798 324.0 
290.085907 159.0 
291.065765 331.0 
291.104187 129.0 
291.136505 246.0 
291.179535 248.0 
292.07608 109.0 
292.9151 137.0 
293.083435 95.0 
293.116211 972.0 
294.085938 190.0 
294.127838 283.0 
295.075867 143.0 
295.10199 176.0 
295.130798 563.0 
295.205536 213.0 
297.075104 1793.0 
298.083496 370.0 
299.092346 368.0 
300.16922 134.0 
301.094543 138.0 
301.137177 360.0 
303.058899 165.0 
303.089081 203.0 
303.174286 205.0 
305.082825 110.0 
305.193207 149.0 
305.81134 221.0 
307.059875 2906.0 
307.130737 126.0 
307.166046 324.0 
308.066895 446.0 
308.10376 189.0 
309.075134 937.0 
309.15744 195.0 
311.079651 293.0 
311.11795 895.0 
311.162933 257.0 
312.137665 255.0 
313.072784 154.0 
313.145599 1263.0 
314.140106 228.0 
315.012299 173.0 
315.08728 552.0 
316.049591 155.0 
316.701569 100.0 
317.031494 163.0 
317.106812 225.0 
317.152344 173.0 
319.05835 195.0 
319.173309 151.0 
319.601044 210.0 
321.072388 184.0 
321.116608 301.0 
321.183777 234.0 
323.056824 175.0 
324.67804 265.0 
325.070557 7037.0 
325.142761 182.0 
325.624084 120.0 
326.072266 270.0 
327.086609 391.0 
327.154572 557.0 
328.160675 220.0 
328.968079 185.0 
329.08609 160.0 
329.138977 315.0 
330.032135 190.0 
330.128571 243.0 
331.176941 117.0 
332.067963 165.0 
332.163452 318.0 
333.153564 588.0 
335.059509 517.0 
335.097809 475.0 
336.061768 516.0 
337.070923 142.0 
337.110535 166.0 
337.156952 160.0 
338.096893 199.0 
338.183228 228.0 
338.513855 152.0 
339.052002 141.0 
339.126007 593.0 
340.125641 516.0 
341.14859 330.0 
343.042084 165.0 
343.087952 120.0 
343.159485 412.0 
344.142365 121.0 
345.158447 606.0 
347.056152 117.0 
347.168854 418.0 
349.113586 207.0 
349.185181 469.0 
351.078796 129.0 
351.156647 187.0 
351.198425 178.0 
353.065521 1527.0 
353.139343 143.0 
354.071869 609.0 
355.085938 164.0 
355.161499 147.0 
355.192932 202.0 
357.140442 707.0 
358.156067 189.0 
359.126648 97.0 
359.166443 371.0 
360.147491 188.0 
361.094391 505.0 
361.147797 160.0 
361.193756 117.0 
363.161194 167.0 
364.106415 149.0 
365.074829 138.0 
365.143066 236.0 
365.176849 322.0 
366.177368 379.0 
367.135254 175.0 
367.192871 468.0 
369.098236 336.0 
369.14798 299.0 
370.163269 285.0 
370.76062 145.0 
371.078369 4282.0 
372.079407 1524.0 
373.077423 142.0 
375.059448 110.0 
375.155945 1956.0 
376.170349 160.0 
377.136749 227.0 
377.177521 764.0 
378.182404 393.0 
378.603973 122.0 
379.15976 303.0 
381.099579 157.0 
382.139923 182.0 
383.180237 244.0 
383.944092 125.0 
385.079742 300.0 
385.123566 280.0 
386.139801 100.0 
387.15036 188.0 
387.177185 337.0 
389.083679 5315.0 
390.088593 325.0 
391.10321 133.0 
392.605652 109.0 
393.172333 1283.0 
393.294373 129.0 
395.181824 708.0 
396.105896 90.0 
397.161041 232.0 
398.127441 103.0 
401.12677 119.0 
401.959747 185.0 
402.128754 229.0 
403.006561 190.0 
403.151794 1117.0 
404.155396 425.0 
405.14151 193.0 
405.173004 561.0 
407.139526 82.0 
411.182526 868.0 
413.142365 113.0 
413.18219 161.0 
413.213715 161.0 
419.143768 160.0 
421.109283 150.0 
421.163086 2585.0 
421.565033 144.0 
422.16568 231.0 
422.615997 124.0 
423.183594 695.0 
424.185211 203.0 
426.118805 172.0 
429.187134 513.0 
431.147888 336.0 
439.121613 374.0 
439.175262 2343.0 
440.177734 598.0 
441.187866 615.0 
442.200409 101.0 
442.241943 144.0 
443.0896 125.0 
443.131195 159.0 
443.178375 121.0 
449.076782 143.0 
449.159119 1806.0 
450.159821 392.0 
457.185364 448.0 
459.207581 319.0 
462.569092 114.0 
466.005493 164.0 
467.067505 107.0 
467.096344 175.0 
467.173065 6842.0 
468.136871 206.0 
468.174927 660.0 
476.190369 170.0 
482.102722 102.0 
485.065094 132.0 
485.180115 5948.0 
486.172333 773.0 
486.221375 191.0 
503.117249 205.0 
503.187653 331.0 
504.19516 268.0 
521.214539 117.0 
537.328979 160.0 
END IONS

BEGIN IONS
TITLE=Scan Number: 414
PEPMASS=654.13
CHARGE=1+
MSLEVEL=2
FILENAME=C9_GC9_01_2621.mzXML
INSTRUMENT=ion trap
SCANS=414
SMILES=O[C@@H]1[C@@H](COC(=O)C2=CC(O)=C(O)C(O)=C2)O[C@@H](OC(=O)C3=CC(O)=C(O)C(O)=C3)[C@H](O)[C@H]1OC(=O)C4=CC(O)=C(O)C(O)=C4
INCHIKEY=RNKMOGIPOMVCHO-SJMVAQJGSA-N
81.026413 210.0 
83.96508 259.0 
97.027611 1120.0 
107.012276 170.0 
109.026428 1120.0 
121.573647 287.0 
126.029129 176.0 
127.038193 1305.0 
128.040833 122.0 
143.03035 388.0 
152.292786 93.0 
152.703506 117.0 
153.017868 28618.0 
153.152573 106.0 
154.02179 2143.0 
155.018631 210.0 
171.029648 3624.0 
172.030746 550.0 
173.49585 100.0 
226.974991 140.0 
233.044052 109.0 
259.119354 282.0 
261.105652 168.0 
263.009674 154.0 
268.962646 160.0 
279.045776 143.0 
291.099579 124.0 
297.06015 2421.0 
297.228119 94.0 
298.030792 193.0 
301.585358 126.0 
467.07901 2756.0 
468.077362 181.0 
619.092163 242.0 
635.081177 172.0 
653.287903 165.0 
654.268677 100.0 
666.349792 128.0 
765.133057 126.0 
1749.201782 274.0 
END IONS

BEGIN IONS
TITLE=Scan Number: 416
PEPMASS=319.19
CHARGE=1+
MSLEVEL=2
FILENAME=C12_RC12_01_2678.mzXML
INSTRUMENT=ion trap
SCANS=416
SMILES=CC12CC(=O)CC1C3CCC4CC(O)C(O)CC4(C)C3=CC2=O
INCHIKEY=DFKDHZBMIJQPIK-UHFFFAOYSA-N
74.890022 185.0 
77.038475 313.0 
78.047531 193.0 
79.003532 266.0 
79.054123 4328.0 
79.090645 237.0 
79.237984 319.0 
80.062355 307.0 
81.033394 356.0 
81.069656 3846.0 
81.475723 109.0 
83.051216 427.0 
84.958794 1996.0 
85.063644 139.0 
90.045235 155.0 
90.878311 193.0 
91.054756 8658.0 
92.020645 194.0 
92.059982 585.0 
93.069756 4232.0 
93.154099 129.0 
93.19725 167.0 
93.536224 60.0 
94.027664 322.0 
94.072296 198.0 
95.051102 892.0 
95.085381 3231.0 
96.091728 337.0 
97.064995 524.0 
98.099236 233.0 
103.053558 1077.0 
104.062363 453.0 
105.046829 2734.0 
105.07061 14676.0 
106.072044 746.0 
106.874916 152.0 
107.050392 1584.0 
107.084679 3925.0 
108.054794 122.0 
108.088394 147.0 
109.065178 2790.0 
109.101601 1101.0 
110.070328 270.0 
111.419174 165.0 
112.24305 141.0 
112.760353 143.0 
113.058594 137.0 
114.076981 203.0 
114.222282 185.0 
115.053841 2677.0 
115.580551 103.0 
116.06385 1020.0 
117.034683 273.0 
117.070206 5243.0 
117.311562 174.0 
117.500656 239.0 
118.086235 290.0 
119.057259 1011.0 
119.086067 4584.0 
119.332649 63.0 
120.063591 166.0 
120.090828 230.0 
120.819702 78.0 
120.981049 158.0 
121.065453 2636.0 
121.099442 1437.0 
121.150963 141.0 
121.593147 98.0 
122.10865 146.0 
123.044441 258.0 
123.080879 5071.0 
124.007217 152.0 
124.061508 183.0 
124.082222 242.0 
125.058586 201.0 
125.983368 81.0 
126.067726 210.0 
127.055908 215.0 
127.079659 199.0 
128.062225 2951.0 
128.413574 197.0 
129.034531 427.0 
129.070663 3809.0 
130.076523 2017.0 
130.638672 117.0 
131.086716 5478.0 
132.054474 404.0 
132.091003 394.0 
133.064362 2488.0 
133.102097 3950.0 
133.242996 83.0 
134.076111 239.0 
134.107117 190.0 
135.081146 2512.0 
135.117111 525.0 
136.08197 636.0 
137.059113 955.0 
137.096161 351.0 
138.968262 198.0 
138.989273 357.0 
139.006927 293.0 
139.059326 282.0 
139.075272 486.0 
139.364456 166.0 
141.070709 3245.0 
141.096909 220.0 
141.414398 329.0 
142.079529 2484.0 
142.595886 145.0 
143.085327 5454.0 
143.118561 164.0 
143.487717 178.0 
144.055664 264.0 
144.092606 772.0 
145.068665 940.0 
145.101273 11851.0 
146.074783 2253.0 
146.106339 1690.0 
147.042084 343.0 
147.079453 2262.0 
147.117813 963.0 
148.088104 202.0 
148.127243 149.0 
149.096558 4221.0 
149.13176 1011.0 
149.412979 132.0 
150.098373 383.0 
151.074966 138.0 
151.112564 827.0 
152.114441 100.0 
153.069275 1287.0 
153.093201 559.0 
154.078476 1213.0 
155.061264 1396.0 
155.086044 7069.0 
155.373779 103.0 
155.851196 242.0 
156.092255 3221.0 
157.060944 292.0 
157.101288 8494.0 
158.072754 3525.0 
158.103821 689.0 
159.080307 6933.0 
159.117249 4436.0 
159.319824 172.0 
160.083176 975.0 
160.124924 567.0 
161.063583 518.0 
161.096939 5200.0 
161.131393 339.0 
162.066162 396.0 
162.101242 277.0 
162.972733 732.0 
163.080627 502.0 
163.112259 1616.0 
165.069061 2466.0 
166.059158 194.0 
166.080734 1466.0 
167.085052 4419.0 
168.090668 2574.0 
168.22641 152.0 
169.072601 502.0 
169.101181 3908.0 
169.339325 117.0 
170.108322 106.0 
170.627213 226.0 
171.051056 240.0 
171.086304 465.0 
171.115982 3216.0 
172.085373 565.0 
172.125137 660.0 
172.880615 262.0 
173.095947 12233.0 
173.133453 591.0 
173.202545 112.0 
174.065842 196.0 
174.097549 1113.0 
174.136215 393.0 
174.558609 93.0 
175.077881 745.0 
175.111526 1722.0 
176.062332 187.0 
176.086838 790.0 
177.091873 3485.0 
177.126068 267.0 
177.285385 75.0 
178.07962 457.0 
178.127579 102.0 
179.080643 992.0 
179.5439 104.0 
180.049377 94.0 
180.089188 721.0 
180.595184 85.0 
180.984253 426.0 
181.063828 637.0 
181.101105 3605.0 
182.071838 329.0 
182.108368 2118.0 
183.081711 901.0 
183.116943 5334.0 
184.120529 1219.0 
184.831772 75.0 
185.095871 1836.0 
185.133362 1584.0 
185.603348 99.0 
186.097168 213.0 
186.139847 144.0 
187.110886 1222.0 
187.145935 397.0 
188.113495 135.0 
189.093582 1742.0 
189.127335 386.0 
189.165817 110.0 
190.307358 172.0 
191.107819 5989.0 
192.095047 1148.0 
192.221954 170.0 
193.101379 1640.0 
194.104568 100.0 
194.123489 198.0 
195.082977 312.0 
195.117569 2513.0 
196.078354 197.0 
196.126221 913.0 
197.097214 411.0 
197.133728 3998.0 
198.136902 569.0 
198.998489 396.0 
199.043655 157.0 
199.11145 1898.0 
199.147324 3168.0 
199.244644 130.0 
199.809769 132.0 
200.121277 257.0 
200.154343 560.0 
201.076477 539.0 
201.126785 983.0 
202.085129 473.0 
202.130798 191.0 
203.056046 155.0 
203.087982 527.0 
204.096405 260.0 
205.111984 571.0 
206.105789 449.0 
206.321686 211.0 
207.114868 1418.0 
208.090698 345.0 
208.123367 1239.0 
209.099396 915.0 
209.132751 545.0 
210.101761 834.0 
211.081421 134.0 
211.108185 690.0 
211.14537 1182.0 
212.092117 114.0 
212.121368 456.0 
213.129211 1807.0 
213.169891 966.0 
214.100403 164.0 
214.124771 148.0 
214.172058 192.0 
215.107468 424.0 
215.143478 2258.0 
215.959442 76.0 
216.110748 387.0 
217.120163 685.0 
217.160141 536.0 
218.124115 174.0 
219.117249 391.0 
219.14267 287.0 
220.068512 86.0 
220.115158 151.0 
221.094238 125.0 
221.130508 1618.0 
222.071793 93.0 
222.137939 621.0 
222.902985 255.0 
223.113388 1575.0 
223.148224 4384.0 
223.497147 184.0 
223.715897 118.0 
224.120102 856.0 
224.155228 320.0 
225.127884 4136.0 
225.182114 176.0 
225.75267 89.0 
226.135986 824.0 
227.110275 269.0 
227.144669 465.0 
227.178726 239.0 
227.227127 137.0 
228.185028 176.0 
229.163071 205.0 
229.352249 198.0 
231.139221 271.0 
231.17128 370.0 
232.076019 218.0 
232.118286 498.0 
232.491547 76.0 
233.147827 992.0 
235.109634 502.0 
235.147308 260.0 
235.509323 181.0 
237.130066 489.0 
237.161209 2028.0 
238.134399 500.0 
239.147919 1390.0 
240.149826 1098.0 
240.988495 124.0 
241.158569 4552.0 
242.155243 225.0 
243.138657 2294.0 
243.703964 86.0 
244.141815 180.0 
244.720322 100.0 
244.824097 192.0 
244.894806 110.0 
245.121323 97.0 
245.298309 104.0 
247.05043 157.0 
247.148422 1567.0 
248.146622 325.0 
250.13887 1285.0 
251.133835 560.0 
252.153687 211.0 
253.121735 127.0 
253.157806 369.0 
253.329407 166.0 
255.175003 3688.0 
256.151459 252.0 
257.161438 144.0 
258.150604 92.0 
258.724884 245.0 
259.129059 216.0 
259.167358 676.0 
261.125153 189.0 
261.158234 716.0 
265.159515 6764.0 
266.160492 1981.0 
267.125336 133.0 
268.057251 135.0 
268.141602 459.0 
271.179962 341.0 
273.183502 1488.0 
282.182678 163.0 
283.079254 180.0 
283.170319 14567.0 
284.071411 197.0 
284.171051 1637.0 
294.596161 223.0 
300.61908 161.0 
301.140442 110.0 
301.179474 7164.0 
302.181458 551.0 
304.339813 83.0 
318.058807 70.0 
319.142029 528.0 
319.190979 14466.0 
319.40155 113.0 
320.19223 2420.0 
320.305359 81.0 
322.385651 158.0 
360.214569 145.0 
652.124817 120.0 
1269.977417 123.0 
1500.114624 241.0 
1571.995728 306.0 
1706.061157 221.0 
1864.10144 325.0 
1874.050049 97.0 
1890.664917 369.0 
1953.403076 90.0 
1995.362061 253.0 
END IONS

BEGIN IONS
TITLE=Scan Number: 417
PEPMASS=571.349
CHARGE=1+
MSLEVEL=2
FILENAME=C12_RC12_01_2678.mzXML
INSTRUMENT=ion trap
SCANS=417
SMILES=CCC(C)C1NC(=O)C(CC2=CC=CC=C2)NC(=O)C(CCCCCC(=O)C(C)O)NC(=O)C3CCCCN3C1=O
INCHIKEY=RWTAMSAIOGWNBT-UHFFFAOYSA-N
75.046425 184.0 
76.071014 358.0 
77.778816 198.0 
79.055321 670.0 
79.616653 101.0 
79.763237 348.0 
81.032005 162.0 
81.069908 1832.0 
81.819046 75.0 
82.062737 261.0 
82.918198 212.0 
83.048592 165.0 
83.085373 2569.0 
83.143616 175.0 
83.282585 447.0 
83.383751 120.0 
83.594795 191.0 
83.796829 169.0 
83.854393 208.0 
83.906525 277.0 
83.959129 312.0 
84.016098 225.0 
84.080833 213600.0 
84.187874 177.0 
84.212845 296.0 
84.315147 91.0 
84.485649 319.0 
84.557831 96.0 
84.646606 103.0 
84.693253 106.0 
84.831635 259.0 
84.914894 115.0 
84.973763 61.0 
85.084 10245.0 
85.134201 308.0 
85.28096 94.0 
85.328522 47.0 
85.442207 235.0 
85.467712 135.0 
85.675041 111.0 
85.724304 93.0 
85.760345 213.0 
85.887764 242.0 
85.931465 95.0 
85.970894 99.0 
86.021111 261.0 
86.043587 189.0 
86.096359 29792.0 
86.150597 106.0 
86.918266 67.0 
87.043533 447.0 
87.09951 2080.0 
87.143394 125.0 
87.189293 77.0 
87.518524 146.0 
88.366859 197.0 
89.179596 160.0 
89.195663 241.0 
89.233711 152.0 
89.957802 121.0 
89.991272 49.0 
90.054382 143.0 
90.63353 84.0 
91.053093 569.0 
92.574501 55.0 
93.012589 90.0 
93.07003 2448.0 
93.425674 56.0 
94.075737 423.0 
94.309578 393.0 
94.377747 264.0 
95.086433 1106.0 
95.453835 129.0 
95.490295 72.0 
96.08091 496.0 
96.10511 183.0 
96.768074 79.0 
96.80143 157.0 
97.002113 173.0 
97.051987 329.0 
97.06855 546.0 
98.096497 1033.0 
98.389442 88.0 
99.0718 195.0 
100.075584 264.0 
100.112816 159.0 
100.61599 176.0 
101.727867 346.0 
101.786217 69.0 
102.38456 222.0 
103.054626 1360.0 
104.055908 169.0 
105.056244 451.0 
105.072113 509.0 
105.123116 303.0 
107.088257 960.0 
107.129562 134.0 
108.054611 194.0 
108.081017 609.0 
108.843391 170.0 
109.101547 3107.0 
110.105553 491.0 
111.08062 8286.0 
111.833687 177.0 
112.027176 66.0 
112.076202 18850.0 
112.106323 346.0 
112.218399 169.0 
112.364853 163.0 
112.420647 183.0 
113.077179 519.0 
113.105934 405.0 
113.739624 260.0 
113.882477 376.0 
114.087593 350.0 
115.050568 178.0 
115.094193 187.0 
115.424515 275.0 
116.887169 263.0 
117.072617 156.0 
117.954277 227.0 
119.083023 640.0 
119.107246 229.0 
119.614799 112.0 
119.669411 81.0 
119.918037 124.0 
120.080925 117020.0 
120.127388 179.0 
120.305779 235.0 
120.373268 203.0 
121.032532 106.0 
121.083847 10347.0 
121.345436 71.0 
121.85318 123.0 
122.075638 209.0 
122.146149 153.0 
122.98629 190.0 
123.30574 106.0 
124.049072 129.0 
125.093666 343.0 
125.43364 216.0 
126.124359 227.0 
127.11425 328.0 
127.594788 168.0 
127.692413 81.0 
128.06842 1258.0 
128.297791 93.0 
129.102264 472.0 
129.784897 92.0 
130.08699 1040.0 
131.085052 278.0 
131.45488 182.0 
132.081329 1062.0 
133.445618 88.0 
136.111847 3972.0 
136.263199 104.0 
136.684937 106.0 
136.781052 212.0 
137.059738 308.0 
137.095963 34733.0 
137.411148 112.0 
137.860245 159.0 
138.098419 2743.0 
139.096085 266.0 
139.33165 116.0 
139.508377 84.0 
140.070618 13056.0 
141.074997 1258.0 
141.524124 189.0 
142.33017 103.0 
144.078979 461.0 
144.699524 314.0 
145.087006 157.0 
145.103729 148.0 
146.54184 162.0 
148.231369 283.0 
149.10379 291.0 
151.032272 117.0 
151.087006 218.0 
152.063553 302.0 
152.143433 367.0 
153.081131 166.0 
153.604111 63.0 
154.095413 131.0 
154.122681 9316.0 
154.560303 125.0 
154.994476 50.0 
155.107391 18897.0 
155.292862 49.0 
155.391617 68.0 
156.069138 237.0 
156.111359 2090.0 
156.175903 102.0 
156.417297 75.0 
156.933319 176.0 
157.083023 115.0 
157.118423 503.0 
158.097183 335.0 
160.118912 342.0 
160.571609 128.0 
162.116272 78.0 
162.358978 157.0 
162.503738 107.0 
163.615128 209.0 
164.028061 138.0 
164.078873 180.0 
164.105484 143.0 
164.145615 270.0 
165.078918 3009.0 
165.138855 233.0 
166.08432 1218.0 
167.143219 181.0 
168.092606 489.0 
168.118912 331.0 
168.584473 49.0 
169.100159 456.0 
171.745605 175.0 
171.866714 116.0 
171.88414 137.0 
172.076721 226.0 
172.133423 86441.0 
172.176147 46.0 
172.515259 124.0 
172.5746 183.0 
172.697906 120.0 
172.768784 157.0 
172.878387 205.0 
172.946274 81.0 
173.136459 9891.0 
173.193634 135.0 
173.236771 117.0 
173.309158 46.0 
173.461487 111.0 
173.584045 135.0 
173.612167 98.0 
174.147888 433.0 
174.414612 201.0 
174.532227 45.0 
174.55928 88.0 
176.748947 345.0 
177.573883 288.0 
178.473724 106.0 
179.15274 451.0 
179.667282 113.0 
179.753174 104.0 
179.897217 219.0 
180.113495 404.0 
180.142532 184.0 
180.177002 138.0 
181.047592 79.0 
181.110504 741.0 
181.170898 1997.0 
181.726883 167.0 
181.75441 340.0 
181.793945 99.0 
182.173401 195.0 
183.120087 216.0 
184.074234 129.0 
185.07843 140.0 
185.131927 348.0 
186.079361 155.0 
186.118607 361.0 
187.074112 126.0 
187.127335 93.0 
187.807938 200.0 
188.147049 328.0 
189.140823 152.0 
190.986938 297.0 
192.202545 314.0 
192.242218 204.0 
193.134171 625.0 
194.13298 173.0 
195.150574 757.0 
197.164017 1600.0 
198.121292 738.0 
198.163727 333.0 
199.081482 172.0 
199.133728 470.0 
200.141724 357.0 
200.791183 100.0 
201.112259 176.0 
201.13504 181.0 
201.191925 209.0 
202.095657 180.0 
204.566025 141.0 
206.116898 194.0 
207.153305 1249.0 
208.134048 22845.0 
208.312897 124.0 
208.588348 84.0 
208.983536 239.0 
209.103775 176.0 
209.138947 1801.0 
209.374496 90.0 
210.132477 210.0 
212.112976 165.0 
215.155853 397.0 
216.238388 272.0 
217.141876 210.0 
218.139282 115.0 
218.553146 154.0 
219.872421 93.0 
221.134277 744.0 
222.068268 220.0 
222.123505 330.0 
223.147034 128.0 
223.74765 116.0 
224.257797 207.0 
225.043549 159.0 
225.160049 11830.0 
226.134521 239.0 
226.162262 521.0 
228.123749 1335.0 
229.136429 244.0 
229.91185 228.0 
230.132263 156.0 
230.172531 207.0 
233.165283 29873.0 
233.261719 111.0 
233.409576 108.0 
233.729538 57.0 
234.16716 2266.0 
234.20636 154.0 
234.441162 304.0 
234.515213 264.0 
235.167694 196.0 
235.293533 71.0 
235.427048 74.0 
237.159012 148.0 
238.133545 187.0 
238.173309 621.0 
239.211075 150.0 
240.203796 131.0 
240.40387 175.0 
241.151917 358.0 
241.198975 117.0 
243.149445 854.0 
244.132233 3415.0 
244.401062 46.0 
245.168854 166.0 
245.708527 170.0 
247.127457 144.0 
247.181381 280.0 
247.609848 87.0 
248.180145 64.0 
250.181015 166.0 
251.200226 168.0 
253.15831 243.0 
255.191422 176.0 
256.165283 1461.0 
256.88855 189.0 
257.133148 433.0 
257.169617 389.0 
257.439087 118.0 
258.167511 152.0 
258.502136 53.0 
259.152344 167.0 
260.582367 76.0 
260.707458 156.0 
261.160065 11189.0 
261.286499 131.0 
261.509277 144.0 
261.570526 195.0 
262.16098 1204.0 
262.551331 138.0 
263.179016 217.0 
263.982697 134.0 
264.601807 58.0 
265.193756 161.0 
266.168976 213.0 
267.170502 167.0 
267.209198 690.0 
268.166138 202.0 
268.20874 389.0 
269.070557 228.0 
271.344635 93.0 
271.58847 68.0 
272.153809 150.0 
272.72525 256.0 
274.179291 7111.0 
275.181915 1323.0 
276.099854 203.0 
276.177307 285.0 
278.200012 81.0 
278.998871 97.0 
279.344177 65.0 
281.202118 181.0 
282.05661 55.0 
282.224091 58.0 
282.441833 160.0 
282.959534 66.0 
283.096069 160.0 
283.138702 1093.0 
283.20166 52740.0 
283.548462 100.0 
284.021118 150.0 
284.164276 704.0 
284.205292 8766.0 
284.343231 92.0 
284.481781 128.0 
284.608551 157.0 
284.733887 91.0 
284.892334 94.0 
285.029694 102.0 
285.215302 2078.0 
285.414795 48.0 
286.168579 341.0 
287.145935 216.0 
293.183533 661.0 
294.186615 159.0 
295.209717 174.0 
295.737457 57.0 
296.198181 116.0 
296.324463 59.0 
298.050232 345.0 
299.178558 152.0 
299.212738 179.0 
300.138214 286.0 
300.217438 168.0 
300.3638 119.0 
300.419525 385.0 
300.828308 231.0 
301.13678 134.0 
301.190094 4966.0 
302.193848 1075.0 
303.180908 427.0 
303.202332 444.0 
304.071838 47.0 
304.216675 135.0 
304.937286 221.0 
306.215271 133.0 
308.442688 134.0 
310.256378 218.0 
310.385223 241.0 
310.486572 122.0 
310.854187 117.0 
311.071777 301.0 
311.14325 750.0 
311.197174 68862.0 
311.273193 102.0 
311.47171 100.0 
311.797638 63.0 
312.152069 555.0 
312.199921 9341.0 
312.500641 214.0 
313.203522 896.0 
313.999908 87.0 
314.049622 45.0 
314.186066 145.0 
314.410553 121.0 
314.75412 128.0 
316.080719 97.0 
317.258362 53.0 
317.370697 52.0 
317.440155 60.0 
317.703278 115.0 
318.477295 222.0 
318.711273 151.0 
319.108185 638.0 
319.201538 54389.0 
319.260895 386.0 
319.404449 55.0 
319.750458 53.0 
319.964508 78.0 
320.205139 7967.0 
321.085266 103.0 
321.204865 993.0 
321.956329 99.0 
322.093994 100.0 
322.512451 390.0 
323.223419 244.0 
323.413452 117.0 
323.593933 63.0 
324.203186 117.0 
324.235413 217.0 
327.202881 140.0 
328.229004 628.0 
328.432831 262.0 
329.133453 497.0 
329.183533 3971.0 
329.870789 84.0 
330.187164 846.0 
330.254517 195.0 
331.20224 1109.0 
331.94104 93.0 
332.203522 169.0 
333.25 208.0 
334.203552 159.0 
335.55365 91.0 
339.884583 220.0 
340.765259 104.0 
341.210968 884.0 
342.211334 107.0 
344.241089 306.0 
345.231506 114.0 
345.910858 99.0 
346.204651 144.0 
346.551819 110.0 
346.613831 176.0 
346.765656 182.0 
347.197327 34596.0 
347.422852 93.0 
347.541809 61.0 
347.797089 107.0 
348.140991 158.0 
348.199677 4334.0 
349.207306 698.0 
350.274658 117.0 
350.504639 95.0 
350.535217 87.0 
350.584991 66.0 
351.18277 149.0 
351.219177 327.0 
351.263367 211.0 
355.204468 6066.0 
356.094452 325.0 
356.204651 1366.0 
360.040924 104.0 
363.466339 252.0 
364.221588 251.0 
366.092834 80.0 
366.352356 272.0 
369.593414 73.0 
369.836182 180.0 
371.108459 112.0 
371.228638 281.0 
371.316772 198.0 
371.441376 128.0 
371.526001 63.0 
371.586151 99.0 
371.648712 64.0 
371.732605 114.0 
371.761963 214.0 
372.11322 220.0 
372.22876 100659.0 
372.31543 274.0 
372.698914 50.0 
372.829529 51.0 
372.940277 145.0 
373.231842 13247.0 
374.01178 119.0 
374.19281 89.0 
374.240692 402.0 
375.349701 128.0 
375.638794 180.0 
375.696869 52.0 
375.870483 249.0 
376.126648 164.0 
379.252533 748.0 
379.373688 167.0 
380.243896 112.0 
381.460419 78.0 
382.475586 356.0 
384.269928 325.0 
385.247833 92.0 
386.242645 139.0 
386.791046 132.0 
387.231476 195.0 
387.264526 632.0 
388.229248 316.0 
389.244446 165.0 
391.752808 124.0 
394.249573 320.0 
396.245575 162.0 
397.254242 384.0 
398.256134 151.0 
399.254852 122.0 
400.226593 1122.0 
400.732391 126.0 
406.146606 301.0 
406.274261 1685.0 
407.274963 282.0 
412.240326 66.0 
412.271301 228.0 
414.273407 1098.0 
415.18045 130.0 
415.252411 1706.0 
416.268555 581.0 
420.51297 85.0 
421.566223 74.0 
424.281097 5362.0 
424.516754 80.0 
424.851929 58.0 
425.294922 712.0 
426.194183 60.0 
426.709534 96.0 
430.271606 3364.0 
431.265717 556.0 
432.282837 1568.0 
433.283508 228.0 
439.014587 56.0 
440.244843 368.0 
441.165924 242.0 
441.850952 176.0 
442.000732 100.0 
442.268768 7036.0 
442.594879 353.0 
443.162262 206.0 
443.278168 1940.0 
443.409668 116.0 
443.609406 56.0 
443.912781 85.0 
444.272369 415.0 
445.289612 143.0 
446.045624 134.0 
453.258209 143.0 
456.49408 289.0 
457.193024 78.0 
457.258118 144.0 
457.291992 580.0 
457.540863 77.0 
458.02948 314.0 
458.264404 47802.0 
458.407745 230.0 
458.486969 48.0 
458.935974 80.0 
459.201172 72.0 
459.266937 12959.0 
459.59494 115.0 
459.710785 109.0 
460.166107 194.0 
460.211792 65.0 
460.279663 22046.0 
460.448425 130.0 
460.78894 64.0 
461.201477 61.0 
461.286713 4185.0 
461.476288 143.0 
461.50946 129.0 
461.60376 106.0 
462.294006 234.0 
462.779175 51.0 
463.041016 68.0 
463.337616 73.0 
475.112183 92.0 
475.90799 81.0 
483.758453 49.0 
488.269043 75.0 
491.320435 151.0 
500.802368 165.0 
504.223602 149.0 
507.339874 171.0 
509.354523 329.0 
510.348236 133.0 
515.323364 80.0 
525.346252 344.0 
526.309448 743.0 
527.353516 614.0 
528.362732 895.0 
529.943298 69.0 
532.412231 152.0 
535.227417 139.0 
536.323181 248.0 
542.958923 140.0 
543.351685 12346.0 
543.832886 153.0 
544.296326 141.0 
544.360596 4394.0 
547.291382 195.0 
552.176819 331.0 
552.36731 166.0 
552.480591 48.0 
552.569153 128.0 
553.342773 5392.0 
553.650024 55.0 
553.923035 51.0 
553.960754 127.0 
554.102417 64.0 
554.332947 2265.0 
555.302917 81.0 
555.332886 113.0 
558.839417 93.0 
562.243347 159.0 
564.019409 69.0 
565.156311 112.0 
566.690186 59.0 
567.539734 98.0 
568.698303 88.0 
569.339478 244.0 
569.490479 130.0 
569.688782 133.0 
569.7995 56.0 
569.971985 231.0 
570.151733 72.0 
570.455322 114.0 
570.957214 131.0 
571.050598 147.0 
571.09259 108.0 
571.14032 293.0 
571.171021 377.0 
571.210144 410.0 
571.349487 88874.0 
571.435547 295.0 
571.634094 123.0 
571.993469 51.0 
572.04895 287.0 
572.219666 251.0 
572.351746 24111.0 
572.731018 160.0 
572.824768 109.0 
573.356934 1336.0 
574.257263 70.0 
575.401672 45.0 
575.80835 60.0 
576.216858 57.0 
577.123474 71.0 
577.476196 67.0 
591.309448 50.0 
595.030396 261.0 
598.249451 68.0 
620.152283 148.0 
844.333862 160.0 
1019.145203 285.0 
1071.793823 70.0 
1091.403076 52.0 
1401.039307 341.0 
1407.511841 218.0 
1638.404785 284.0 
1703.941772 203.0 
1720.415405 262.0 
1748.813354 242.0 
1755.637085 71.0 
1771.658936 368.0 
1803.279541 252.0 
1848.602051 326.0 
1865.493408 252.0 
1878.877686 270.0 
1969.753662 208.0 
END IONS

BEGIN IONS
TITLE=Scan Number: 418
PEPMASS=588.37598
CHARGE=1+
MSLEVEL=2
FILENAME=C12_RC12_01_2678.mzXML
INSTRUMENT=ion trap
SCANS=418
SMILES=CCC(C)C1NC(=O)C(CC2=CC=CC=C2)NC(=O)C(CCCCCC(=O)C(C)O)NC(=O)C3CCCCN3C1=O
INCHIKEY=RWTAMSAIOGWNBT-UHFFFAOYSA-N
79.053436 147.0 
79.48851 231.0 
83.578934 112.0 
84.081268 16055.0 
85.083244 674.0 
86.094955 1781.0 
93.071877 216.0 
103.054749 135.0 
109.104179 434.0 
111.082169 208.0 
112.076378 855.0 
113.076279 174.0 
117.067871 171.0 
118.067352 189.0 
120.080917 3818.0 
121.081963 439.0 
123.081604 133.0 
132.314316 142.0 
133.030991 388.0 
136.112915 644.0 
137.095978 2719.0 
138.099731 586.0 
140.070831 2468.0 
141.078217 183.0 
146.096146 191.0 
154.104645 177.0 
154.124969 1134.0 
155.106522 2233.0 
156.105743 176.0 
157.092758 178.0 
162.022293 133.0 
164.14679 227.0 
165.077271 438.0 
166.086044 418.0 
168.105682 192.0 
168.690491 304.0 
168.891663 221.0 
172.108063 852.0 
172.134003 8445.0 
172.440231 89.0 
173.139816 784.0 
174.14296 175.0 
179.077957 227.0 
181.090164 186.0 
181.169128 524.0 
181.34549 112.0 
185.090485 209.0 
193.087402 240.0 
193.110306 175.0 
197.081848 261.0 
197.164551 785.0 
198.051483 175.0 
198.127853 151.0 
199.123917 122.0 
200.129517 215.0 
202.582687 226.0 
203.103867 160.0 
208.133865 3959.0 
209.09758 151.0 
209.139603 187.0 
210.140167 325.0 
210.321136 102.0 
216.142578 268.0 
224.910233 126.0 
225.157745 1788.0 
225.783722 103.0 
226.167786 288.0 
226.650085 299.0 
230.161682 156.0 
231.089127 134.0 
233.16568 1342.0 
234.163254 158.0 
234.613724 196.0 
236.054138 210.0 
238.063843 234.0 
241.104034 209.0 
245.132904 250.0 
255.101334 194.0 
256.092224 96.0 
256.167358 228.0 
257.131897 213.0 
258.150208 137.0 
259.815125 270.0 
261.635223 115.0 
262.162781 224.0 
265.145264 362.0 
266.154755 112.0 
267.19809 169.0 
268.069244 143.0 
269.638062 202.0 
274.188263 497.0 
275.191315 109.0 
277.185333 101.0 
278.225586 132.0 
282.426605 142.0 
283.151489 129.0 
283.201508 4995.0 
284.200989 981.0 
285.210724 219.0 
287.146851 196.0 
291.632294 240.0 
296.201447 139.0 
296.239502 239.0 
299.081177 122.0 
301.193329 529.0 
302.180939 197.0 
305.157623 335.0 
311.142792 208.0 
311.197754 7173.0 
312.126465 145.0 
312.203674 705.0 
313.215118 412.0 
314.159668 350.0 
314.205078 121.0 
318.568115 207.0 
319.20108 7480.0 
319.79248 129.0 
320.119263 169.0 
320.20636 1281.0 
322.421295 113.0 
327.197632 93.0 
329.138031 159.0 
329.194214 465.0 
331.203461 412.0 
339.912048 273.0 
340.162445 152.0 
341.21936 239.0 
342.219635 169.0 
347.194641 3983.0 
348.199127 1174.0 
349.187775 91.0 
355.207703 399.0 
356.202087 200.0 
357.160034 236.0 
359.137085 113.0 
364.231903 227.0 
367.127594 91.0 
368.266296 140.0 
372.227692 4458.0 
372.757812 245.0 
373.232483 727.0 
374.22995 114.0 
379.245453 198.0 
383.217468 151.0 
385.145752 376.0 
400.219818 337.0 
401.160278 146.0 
406.282684 118.0 
410.159882 153.0 
414.270813 118.0 
421.243561 168.0 
424.27951 983.0 
425.2565 164.0 
430.26889 109.0 
431.276093 235.0 
432.299377 226.0 
441.240234 128.0 
442.195007 144.0 
442.272858 1479.0 
443.257874 261.0 
448.186371 105.0 
450.192413 223.0 
451.179047 137.0 
457.277954 150.0 
458.109833 171.0 
458.207184 402.0 
458.265472 7113.0 
458.378662 225.0 
459.20694 190.0 
459.268677 1325.0 
460.023712 252.0 
460.279877 3843.0 
461.289307 1035.0 
465.662781 247.0 
511.798889 277.0 
520.800598 185.0 
527.357483 110.0 
538.269897 138.0 
543.352051 3326.0 
544.320984 190.0 
544.363342 654.0 
553.287842 84.0 
553.335815 1219.0 
554.347595 412.0 
564.387634 161.0 
565.265625 265.0 
567.610535 111.0 
568.086792 131.0 
571.084595 283.0 
571.348572 30247.0 
572.280029 162.0 
572.353333 8258.0 
572.880737 98.0 
573.361084 974.0 
575.356201 111.0 
575.520508 144.0 
576.330139 225.0 
576.864746 116.0 
583.298279 129.0 
584.308472 324.0 
587.353149 139.0 
590.159546 212.0 
590.327332 3399.0 
590.745789 255.0 
590.825928 349.0 
591.089966 188.0 
591.285217 126.0 
601.361145 164.0 
609.29071 348.0 
609.367554 119.0 
END IONS

BEGIN IONS
TITLE=Scan Number: 420
PEPMASS=713.22803
CHARGE=1+
MSLEVEL=2
FILENAME=C12_RC12_01_2678.mzXML
INSTRUMENT=ion trap
SCANS=420
SMILES=OC[C@H]1O[C@@H](OC2=CC=C3C(=O)C[C@H](OC3=C2)C4=CC=C(O[C@@H]5O[C@H](CO)[C@@H](O)[C@H](O)[C@H]5O[C@@H]6OC[C@](O)(CO)[C@H]6O)C=C4)[C@H](O)[C@@H](O)[C@@H]1O
INCHIKEY=JUYBMOHJXUXKDN-AXCQTIHMSA-N
76.048561 244.0 
77.563736 348.0 
78.590599 138.0 
79.105301 268.0 
81.033592 147.0 
85.028984 3200.0 
85.539864 206.0 
86.033211 175.0 
87.045479 864.0 
92.979309 216.0 
94.557922 216.0 
97.030594 1096.0 
99.039307 427.0 
103.041237 195.0 
107.049553 186.0 
109.029739 612.0 
115.039398 1497.0 
116.043129 156.0 
117.033012 281.0 
119.049438 531.0 
119.376945 315.0 
121.042358 143.0 
123.043739 412.0 
124.609451 161.0 
127.039749 786.0 
133.05159 945.0 
135.043411 186.0 
136.873596 315.0 
137.024109 15632.0 
138.026947 540.0 
144.259354 138.0 
145.030457 249.0 
145.053726 1013.0 
146.071747 189.0 
146.543213 146.0 
147.000412 141.0 
147.044815 9451.0 
148.044876 127.0 
155.03688 615.0 
161.096375 211.0 
162.884659 226.0 
163.039841 677.0 
164.039642 148.0 
170.814316 323.0 
179.040878 133.0 
184.085388 247.0 
186.413406 168.0 
187.074295 479.0 
188.079773 187.0 
189.057648 354.0 
193.071259 216.0 
194.052139 209.0 
198.18425 372.0 
205.62619 303.0 
211.081772 754.0 
212.276245 203.0 
214.061325 108.0 
215.071701 659.0 
221.670258 214.0 
227.070206 151.0 
229.087433 377.0 
230.084305 148.0 
239.072678 2174.0 
240.073059 352.0 
242.058838 371.0 
247.64537 172.0 
252.969055 239.0 
255.051514 133.0 
255.097565 104.0 
255.716431 175.0 
255.779953 179.0 
256.252197 93.0 
256.450836 107.0 
256.921021 559.0 
256.991516 234.0 
257.081604 141752.0 
257.182343 256.0 
257.212189 263.0 
257.270477 323.0 
257.414215 141.0 
258.084778 21452.0 
259.085968 1430.0 
259.476471 144.0 
259.880493 123.0 
260.024353 258.0 
269.067047 395.0 
281.082428 292.0 
282.084839 113.0 
285.079346 231.0 
298.671906 150.0 
299.056946 409.0 
299.09082 1330.0 
309.123108 194.0 
313.2901 189.0 
341.104156 119.0 
389.122559 151.0 
419.136688 6904.0 
419.555908 136.0 
419.859009 191.0 
420.138214 1246.0 
421.15036 285.0 
423.375885 121.0 
462.132996 186.0 
486.082092 279.0 
594.687195 169.0 
651.163635 114.0 
1097.757202 148.0 
END IONS

BEGIN IONS
TITLE=Scan Number: 423
PEPMASS=385.11301
CHARGE=1+
MSLEVEL=2
FILENAME=A9_BA9_01_2841.mzXML
INSTRUMENT=ion trap
SCANS=423
SMILES=COC1=C(OC)C(O[C@@H]2O[C@H](CO)[C@@H](O)[C@H](O)[C@H]2O)=C3OC(=O)C=CC3=C1
INCHIKEY=MLOMRDQPPYHSAX-QSDFBURQSA-N
74.92878 135.0 
105.045197 217.0 
106.037788 156.0 
107.04377 185.0 
120.018311 395.0 
132.020355 193.0 
133.030304 239.0 
134.032547 751.0 
135.045486 918.0 
147.044479 182.0 
151.027298 92.0 
162.030914 4644.0 
163.036804 928.0 
164.039413 561.0 
164.104706 162.0 
178.025681 253.0 
179.035324 1825.0 
180.037277 171.0 
190.027206 3541.0 
190.760239 206.0 
191.02916 812.0 
191.060257 206.0 
193.007217 217.0 
193.040192 230.0 
194.054291 195.0 
195.061356 145.0 
206.889053 121.0 
207.043488 670.0 
208.035614 3231.0 
209.036102 128.0 
219.408417 97.0 
222.050125 98.0 
222.527573 140.0 
222.819138 99.0 
222.981506 266.0 
223.060043 17852.0 
224.062759 1951.0 
249.933716 112.0 
250.009079 97.0 
385.099792 262.0 
385.21167 102.0 
2000.857544 306.0 
END IONS

BEGIN IONS
TITLE=Scan Number: 424
PEPMASS=402.14001
CHARGE=1+
MSLEVEL=2
FILENAME=A9_BA9_01_2841.mzXML
INSTRUMENT=ion trap
SCANS=424
SMILES=COC1=C(OC)C(O[C@@H]2O[C@H](CO)[C@@H](O)[C@H](O)[C@H]2O)=C3OC(=O)C=CC3=C1
INCHIKEY=MLOMRDQPPYHSAX-QSDFBURQSA-N
77.703529 276.0 
108.052147 132.0 
134.032227 185.0 
135.044128 601.0 
145.02562 166.0 
147.041748 193.0 
162.02951 2828.0 
163.010605 141.0 
163.038544 1143.0 
177.023438 175.0 
179.03331 1106.0 
179.94696 204.0 
190.025284 4574.0 
191.028214 628.0 
193.017838 384.0 
194.018875 183.0 
195.06192 104.0 
205.009384 143.0 
205.664764 395.0 
207.025787 1330.0 
208.005325 139.0 
208.037094 3495.0 
208.317551 198.0 
209.037323 725.0 
210.041687 154.0 
223.059387 29623.0 
223.102356 216.0 
224.064514 3275.0 
227.028946 93.0 
240.070923 138.0 
END IONS

BEGIN IONS
TITLE=Scan Number: 426
PEPMASS=595.16498
CHARGE=1+
MSLEVEL=2
FILENAME=A9_BA9_01_2841.mzXML
INSTRUMENT=ion trap
SCANS=426
SMILES=COC1=CC2=C(C(OC3OC(COC4OCC(O)(CO)C4O)C(O)C(O)C3O)=C1)C(=CC(=O)O2)C5=CC(O)=C(O)C=C5
INCHIKEY=KNCNSYQYJUBLPW-UHFFFAOYSA-N
73.286163 218.0 
80.406914 271.0 
85.027885 1539.0 
87.043396 894.0 
89.007927 86.0 
91.78759 206.0 
97.027596 536.0 
97.60717 212.0 
99.053688 137.0 
100.64817 241.0 
102.361755 158.0 
106.237663 221.0 
107.513718 100.0 
115.018776 83.0 
115.038216 452.0 
121.040314 233.0 
121.896599 389.0 
122.257179 229.0 
124.203331 222.0 
125.020729 1042.0 
125.204521 140.0 
125.292343 158.0 
133.051346 981.0 
134.054626 167.0 
135.032074 144.0 
135.775345 204.0 
137.021729 7032.0 
140.306381 165.0 
143.048752 215.0 
143.082901 178.0 
153.278961 242.0 
154.06781 216.0 
154.189163 357.0 
155.10379 198.0 
156.053253 250.0 
156.619675 87.0 
157.062927 314.0 
157.913116 217.0 
161.056885 135.0 
161.097168 209.0 
161.50679 216.0 
161.694351 113.0 
163.037872 1121.0 
165.05072 308.0 
167.03334 6097.0 
167.470779 158.0 
168.03714 1342.0 
168.057877 600.0 
169.065613 148.0 
170.070633 271.0 
175.034729 537.0 
179.049866 194.0 
181.052048 145.0 
181.547745 150.0 
182.143967 154.0 
183.081238 917.0 
184.056839 126.0 
184.088989 385.0 
185.05957 289.0 
186.067505 554.0 
189.094742 315.0 
191.814194 149.0 
192.937897 174.0 
195.038895 136.0 
197.056961 557.0 
198.062454 684.0 
199.075119 129.0 
200.08371 263.0 
201.089478 304.0 
202.061111 188.0 
203.033951 6261.0 
204.027069 452.0 
205.069519 106.0 
208.041412 135.0 
209.022583 138.0 
209.055695 125.0 
211.072647 999.0 
212.044434 179.0 
212.086884 199.0 
213.056046 720.0 
213.915878 239.0 
214.064941 157.0 
215.070862 114.0 
217.075165 191.0 
218.222137 155.0 
221.043518 2550.0 
221.4272 111.0 
222.04953 163.0 
223.07724 223.0 
224.041794 140.0 
225.053864 209.0 
227.069656 718.0 
228.074402 405.0 
230.054947 309.0 
230.088043 219.0 
231.062805 206.0 
233.083359 321.0 
233.179382 81.0 
234.083359 207.0 
236.591156 216.0 
239.070496 285.0 
240.072845 280.0 
241.041946 133.0 
242.058563 510.0 
242.851242 100.0 
243.029678 129.0 
243.066971 348.0 
244.088821 245.0 
245.045563 392.0 
245.078796 1761.0 
245.283813 290.0 
246.081589 796.0 
246.138641 171.0 
247.57486 205.0 
249.457642 311.0 
253.291306 223.0 
255.061661 943.0 
255.970032 123.0 
256.071625 101.0 
256.810852 206.0 
257.081665 1723.0 
257.719482 298.0 
258.051788 1111.0 
258.088593 443.0 
259.056183 467.0 
260.063812 231.0 
260.116425 268.0 
265.048553 163.0 
268.037445 284.0 
269.048645 593.0 
271.737915 265.0 
273.076965 1120.0 
275.070038 146.0 
275.764221 327.0 
281.545197 165.0 
283.061188 1418.0 
284.739349 175.0 
284.90863 290.0 
285.079193 115.0 
285.211395 155.0 
286.04422 442.0 
287.612885 297.0 
287.934784 185.0 
289.584167 236.0 
289.713806 400.0 
298.07077 148.0 
298.134338 222.0 
298.473572 153.0 
298.720795 163.0 
298.833466 270.0 
298.941467 117.0 
299.455688 116.0 
299.557861 208.0 
299.721558 93.0 
299.940826 194.0 
300.078552 517.0 
300.135254 211.0 
300.219849 110.0 
300.26947 149.0 
300.593109 179.0 
300.646698 109.0 
300.730255 329.0 
300.762054 282.0 
300.82962 395.0 
300.89386 368.0 
300.948456 590.0 
301.070984 355700.0 
301.152924 450.0 
301.191498 228.0 
301.23764 330.0 
301.431732 202.0 
301.468292 169.0 
301.6185 298.0 
301.851013 140.0 
301.922424 203.0 
301.994843 367.0 
302.073822 46234.0 
302.21814 287.0 
302.306549 152.0 
302.339233 229.0 
302.378784 99.0 
302.417877 259.0 
302.484009 92.0 
302.544067 128.0 
302.569092 145.0 
302.641144 121.0 
302.74942 90.0 
303.077026 3073.0 
303.1521 180.0 
303.202057 110.0 
303.389862 90.0 
303.710449 86.0 
303.859467 99.0 
303.944397 103.0 
304.051147 174.0 
304.085266 207.0 
304.107422 289.0 
304.194092 292.0 
304.293976 536.0 
304.361176 172.0 
304.900116 156.0 
311.041595 201.0 
313.063141 183.0 
313.257904 149.0 
318.627838 128.0 
320.163757 79.0 
325.062592 455.0 
326.077118 212.0 
338.08905 163.0 
343.091797 147.0 
344.085144 466.0 
345.086304 152.0 
346.645691 375.0 
367.08017 129.0 
378.98642 135.0 
409.75415 283.0 
433.099915 309.0 
453.7323 192.0 
460.816681 132.0 
461.720367 111.0 
461.825134 79.0 
462.963104 176.0 
463.123688 50628.0 
463.279236 286.0 
463.664062 164.0 
464.068787 83.0 
464.12677 6165.0 
464.234039 78.0 
465.103241 342.0 
465.515747 154.0 
467.13385 174.0 
467.348145 132.0 
478.663879 117.0 
547.148743 94.0 
566.917603 172.0 
1688.800293 93.0 
1870.890869 135.0 
END IONS

BEGIN IONS
TITLE=Scan Number: 428
PEPMASS=699.26398
CHARGE=1+
MSLEVEL=2
FILENAME=A9_BA9_01_2841.mzXML
INSTRUMENT=ion trap
SCANS=428
SMILES=COC1=C(OC)C=C(\C=C\C(=O)OC[C@H]2O[C@@H](OC(CCC3=CC(O)=C(O)C=C3)CC(=O)CCC4=CC=C(O)C(O)=C4)[C@H](O)[C@@H](O)[C@@H]2O)C=C1
INCHIKEY=QXXKEARZEYWTST-QLHFFRPFSA-N
74.100273 250.0 
75.173454 181.0 
78.762939 216.0 
81.032837 641.0 
81.934944 183.0 
85.027969 634.0 
85.358147 335.0 
87.972397 254.0 
93.074318 203.0 
95.046768 211.0 
97.111343 233.0 
103.055092 616.0 
104.427467 114.0 
105.043571 327.0 
105.056366 666.0 
105.280106 83.0 
105.48085 298.0 
109.029137 1057.0 
109.214088 301.0 
115.988899 297.0 
117.033768 418.0 
118.039169 200.0 
119.048416 603.0 
120.055733 801.0 
121.078354 207.0 
121.257706 185.0 
122.06617 100.0 
123.04332 4664.0 
124.012276 276.0 
124.047287 553.0 
126.48587 114.0 
127.038216 802.0 
131.047943 1967.0 
132.035645 138.0 
132.055969 708.0 
133.030212 489.0 
133.063995 1058.0 
134.06337 142.0 
134.683182 153.0 
135.038025 195.0 
135.083603 327.0 
135.57196 172.0 
136.083344 173.0 
137.057495 125.0 
139.075699 341.0 
143.046906 235.0 
145.028305 642.0 
147.053131 405.0 
147.902191 134.0 
148.049835 3629.0 
148.221497 79.0 
149.01503 142.0 
149.058456 5587.0 
150.06337 1099.0 
151.075226 385.0 
151.174744 119.0 
152.079025 229.0 
154.032867 211.0 
155.034348 210.0 
157.067657 97.0 
157.377411 220.0 
160.050888 2146.0 
161.060577 1185.0 
162.061996 298.0 
162.79834 88.0 
163.037689 6713.0 
163.074768 22768.0 
163.628204 118.0 
164.020782 111.0 
164.042709 3030.0 
164.079254 1902.0 
165.053192 769.0 
165.110306 139.0 
165.539078 224.0 
166.01799 137.0 
166.055603 110.0 
167.069946 149.0 
173.062927 166.0 
176.046371 3357.0 
176.380524 304.0 
177.051529 594.0 
177.087646 263.0 
179.070862 312.0 
180.071854 192.0 
181.061249 115.0 
181.17746 151.0 
185.549606 323.0 
186.71109 184.0 
189.061554 345.0 
189.08757 235.0 
189.215225 125.0 
189.547089 131.0 
189.678711 153.0 
189.78096 147.0 
190.09639 313.0 
190.55304 86.0 
190.576599 179.0 
190.88623 149.0 
190.990219 530.0 
191.069855 264701.0 
191.147125 208.0 
191.165497 239.0 
191.193985 223.0 
191.301239 382.0 
191.482254 75.0 
191.772491 102.0 
191.868317 124.0 
192.072922 32197.0 
193.07402 2609.0 
193.337601 165.0 
193.458969 365.0 
193.633682 344.0 
193.846603 140.0 
194.09021 174.0 
194.382843 87.0 
194.479279 103.0 
194.585205 193.0 
194.983276 93.0 
196.823486 137.0 
197.487885 110.0 
199.080276 252.0 
203.077087 304.0 
205.629608 119.0 
208.080551 153.0 
209.019897 135.0 
209.08017 3193.0 
210.082596 408.0 
211.102661 134.0 
218.017639 125.0 
218.129715 197.0 
221.081711 278.0 
222.086563 157.0 
227.090469 156.0 
229.080505 316.0 
231.068832 166.0 
231.093399 231.0 
245.123566 108.0 
255.060699 282.0 
264.158447 129.0 
269.113647 120.0 
273.113434 290.0 
275.093262 376.0 
293.109711 320.0 
296.106262 122.0 
297.109192 127.0 
309.151031 188.0 
310.072693 165.0 
310.136017 202.0 
311.113434 240.0 
311.132141 266.0 
312.13089 127.0 
313.148987 183.0 
317.102814 559.0 
323.071838 418.0 
327.11441 589.0 
328.126831 480.0 
328.955322 223.0 
329.115967 275.0 
329.14917 657.0 
330.81723 129.0 
335.026855 193.0 
335.111359 6298.0 
335.802734 117.0 
336.11554 1666.0 
337.444824 87.0 
345.136078 1146.0 
346.13736 2089.0 
347.139038 648.0 
349.139465 236.0 
351.618256 135.0 
353.0289 101.0 
353.064606 343.0 
353.123535 30504.0 
353.402588 93.0 
354.05835 186.0 
354.128204 5148.0 
354.339569 122.0 
355.014008 127.0 
355.118256 553.0 
355.166473 111.0 
356.167267 136.0 
356.342773 149.0 
357.125793 136.0 
358.141663 196.0 
367.083435 138.0 
367.154785 356.0 
368.253204 104.0 
385.09137 150.0 
411.201202 148.0 
412.086548 147.0 
425.079681 246.0 
438.170349 181.0 
455.275269 124.0 
458.69693 114.0 
479.30127 85.0 
526.162354 198.0 
638.175781 82.0 
645.206299 89.0 
653.2901 211.0 
663.251892 177.0 
683.348633 98.0 
698.235229 101.0 
701.392456 143.0 
1685.276611 158.0 
1850.04541 128.0 
1900.358154 258.0 
1908.654785 202.0 
END IONS

BEGIN IONS
TITLE=Scan Number: 429
PEPMASS=716.29102
CHARGE=1+
MSLEVEL=2
FILENAME=A9_BA9_01_2841.mzXML
INSTRUMENT=ion trap
SCANS=429
SMILES=COC1=C(OC)C=C(\C=C\C(=O)OC[C@H]2O[C@@H](OC(CCC3=CC(O)=C(O)C=C3)CC(=O)CCC4=CC=C(O)C(O)=C4)[C@H](O)[C@@H](O)[C@@H]2O)C=C1
INCHIKEY=QXXKEARZEYWTST-QLHFFRPFSA-N
73.27005 275.0 
79.018349 123.0 
81.037552 350.0 
85.028152 139.0 
87.378578 275.0 
91.056007 204.0 
97.028152 230.0 
103.052193 234.0 
105.033096 150.0 
105.07106 176.0 
107.047203 1010.0 
108.04895 227.0 
109.028748 178.0 
117.035042 210.0 
118.038452 206.0 
118.752998 205.0 
119.053543 221.0 
123.043671 1955.0 
124.044281 178.0 
125.089943 188.0 
127.040138 358.0 
129.251617 339.0 
129.549179 100.0 
131.047363 196.0 
132.397705 147.0 
133.029404 297.0 
133.055054 307.0 
137.056381 242.0 
138.046982 194.0 
146.036591 618.0 
146.932922 217.0 
147.042892 2996.0 
148.050232 1558.0 
149.035889 126.0 
149.059647 3358.0 
151.073517 204.0 
151.566299 144.0 
153.053406 193.0 
155.059372 106.0 
157.063766 124.0 
158.033035 193.0 
160.051453 858.0 
160.095734 113.0 
161.058243 457.0 
163.040207 168.0 
163.075836 7488.0 
163.219604 276.0 
163.661957 175.0 
164.078659 1039.0 
165.053513 665.0 
166.059662 173.0 
167.067032 205.0 
168.18158 314.0 
176.045883 339.0 
177.051361 161.0 
182.062729 178.0 
183.065781 146.0 
190.276642 131.0 
190.451187 165.0 
190.548096 161.0 
190.636658 126.0 
190.691086 106.0 
190.82132 192.0 
190.854736 192.0 
190.894196 279.0 
190.966522 102.0 
191.006195 161.0 
191.069641 150922.0 
191.143066 249.0 
191.243546 110.0 
191.321793 118.0 
191.36998 122.0 
191.462097 172.0 
191.516373 96.0 
191.717102 148.0 
191.989517 180.0 
192.038391 369.0 
192.072678 11462.0 
192.32045 121.0 
192.62973 127.0 
192.66777 127.0 
193.077011 1152.0 
193.458923 118.0 
193.577606 188.0 
193.638229 177.0 
194.098984 164.0 
195.067596 297.0 
200.09494 193.0 
201.01709 163.0 
207.065613 95.0 
207.096863 234.0 
209.08168 2150.0 
225.129776 189.0 
229.624252 102.0 
231.060974 159.0 
241.035858 220.0 
246.080078 174.0 
249.07692 201.0 
251.089493 365.0 
261.066254 145.0 
268.033569 190.0 
268.079102 378.0 
284.120087 214.0 
293.098358 170.0 
297.155457 128.0 
299.368591 352.0 
307.095154 290.0 
309.09668 347.0 
311.104889 117.0 
313.144592 592.0 
317.117767 214.0 
327.157288 142.0 
328.170685 234.0 
329.057068 117.0 
329.099365 178.0 
329.141296 850.0 
330.142517 298.0 
331.140167 139.0 
334.546387 288.0 
335.114136 5469.0 
336.115295 1060.0 
337.147064 172.0 
339.102814 192.0 
346.154175 224.0 
348.14389 114.0 
351.388824 99.0 
352.946899 315.0 
353.123993 22405.0 
354.071228 128.0 
354.127106 2586.0 
354.187286 200.0 
359.069702 125.0 
364.656067 249.0 
367.084686 179.0 
370.120148 248.0 
370.619415 461.0 
371.114929 272.0 
373.639282 210.0 
374.079865 116.0 
379.612518 224.0 
381.637512 199.0 
385.080017 295.0 
386.10083 165.0 
399.079712 200.0 
401.097992 130.0 
412.205933 189.0 
439.257721 152.0 
455.158722 106.0 
496.19162 124.0 
515.194336 128.0 
570.200012 109.0 
681.265564 115.0 
717.327454 96.0 
718.230652 148.0 
718.30542 118.0 
1157.242676 201.0 
1275.844238 265.0 
1954.06189 232.0 
END IONS

BEGIN IONS
TITLE=Scan Number: 430
PEPMASS=1033.34998
CHARGE=1+
MSLEVEL=2
FILENAME=A9_BA9_01_2841.mzXML
INSTRUMENT=ion trap
SCANS=430
SMILES=CC1OC(OC2C(C)OC(OC3C(C)OC(C(O)C3O)C4=C(O)C=C(OC5OC(CO)C(O)C5O)C(C(=O)CCC6=CC=C(O)C=C6)=C4O)C(O)C2OC(=O)\C=C\C7=CC=C(O)C=C7)C(O)C(O)C1OC(C)=O
INCHIKEY=RMVGZKPTURZUMZ-MHWRWJLKSA-N
70.560593 264.0 
71.047882 467.0 
73.026688 605.0 
75.042877 1512.0 
78.773514 249.0 
80.305374 151.0 
81.410118 248.0 
83.048225 7422.0 
84.053688 528.0 
85.026558 3815.0 
86.377983 149.0 
87.907387 87.0 
91.05439 946.0 
92.07283 228.0 
95.343803 185.0 
97.026237 345.0 
97.403961 370.0 
98.031754 297.0 
98.574486 198.0 
98.586769 242.0 
100.204872 233.0 
100.322601 279.0 
103.202728 258.0 
105.017151 310.0 
105.04493 165.0 
107.048729 15120.0 
108.052513 642.0 
110.726868 104.0 
111.043343 12215.0 
111.236504 200.0 
112.043907 658.0 
112.073639 265.0 
113.063263 179.0 
114.207092 218.0 
115.018791 180.0 
117.054649 205.0 
118.119514 164.0 
118.139854 184.0 
119.048553 6849.0 
120.051155 440.0 
121.024361 138.0 
121.068169 334.0 
121.442924 317.0 
122.066971 92.0 
123.044464 715.0 
125.062927 216.0 
125.865807 246.0 
127.033966 381.0 
127.545113 157.0 
129.054214 12242.0 
129.139755 89.0 
130.054871 1123.0 
131.049347 429.0 
131.411011 207.0 
132.079697 220.0 
133.060837 513.0 
135.044739 268.0 
135.077454 151.0 
136.626175 217.0 
136.977661 86.0 
137.024445 364.0 
137.055389 161.0 
139.038361 482.0 
140.07576 100.0 
140.700302 154.0 
141.074356 160.0 
143.98999 100.0 
144.051849 107.0 
145.046341 206.0 
145.065048 295.0 
145.84877 141.0 
146.067093 165.0 
146.324966 118.0 
146.625076 199.0 
146.718536 306.0 
146.814774 115.0 
146.942307 233.0 
146.980179 657.0 
147.043335 232341.0 
147.131226 213.0 
147.232574 87.0 
147.34227 106.0 
147.446014 274.0 
147.617661 203.0 
147.636902 251.0 
147.702866 105.0 
147.986694 247.0 
148.046799 20627.0 
148.214661 117.0 
148.261047 92.0 
148.564331 224.0 
148.662277 110.0 
149.053787 3717.0 
149.142517 188.0 
149.166626 351.0 
149.226166 111.0 
149.261169 169.0 
150.188416 98.0 
151.040253 928.0 
153.261627 144.0 
154.019119 113.0 
154.062485 182.0 
155.283829 313.0 
156.046127 86.0 
156.705246 132.0 
157.050217 303.0 
157.165924 139.0 
158.050583 158.0 
158.884018 101.0 
159.063736 210.0 
160.047806 176.0 
161.053665 327.0 
162.242905 164.0 
163.034546 688.0 
163.07637 476.0 
165.053406 795.0 
165.199738 98.0 
166.014618 175.0 
166.689026 247.0 
167.455444 220.0 
169.051071 1067.0 
169.167236 144.0 
170.235291 213.0 
170.700333 170.0 
171.063736 11174.0 
171.638077 183.0 
171.954529 89.0 
172.077103 404.0 
173.057541 931.0 
173.224365 111.0 
175.02359 245.0 
175.073776 141.0 
177.018402 146.0 
177.04982 121.0 
177.071777 208.0 
181.041885 1130.0 
182.052643 220.0 
182.352066 123.0 
183.03479 154.0 
185.060318 272.0 
187.071793 729.0 
188.042831 84.0 
189.023804 238.0 
189.076248 12693.0 
190.076691 1455.0 
191.031815 619.0 
191.069138 197.0 
191.273682 111.0 
191.449127 189.0 
193.050934 1648.0 
194.051651 210.0 
195.015457 143.0 
195.056931 393.0 
198.735428 122.0 
199.037003 246.0 
199.083893 221.0 
201.056519 1173.0 
202.053619 166.0 
203.06424 931.0 
205.016586 158.0 
205.048294 1421.0 
206.052475 87.0 
207.062607 287.0 
209.036575 141.0 
211.035126 268.0 
211.065033 140.0 
213.055069 447.0 
213.961823 99.0 
214.361755 135.0 
215.033768 207.0 
215.068771 720.0 
217.04715 2697.0 
217.091003 419.0 
218.047333 128.0 
219.031113 415.0 
219.065063 728.0 
220.040436 253.0 
221.046326 388.0 
222.06987 119.0 
223.060104 556.0 
224.057251 174.0 
225.076447 315.0 
226.052826 129.0 
227.072266 713.0 
229.051971 1002.0 
229.081207 341.0 
230.098724 158.0 
230.201019 134.0 
231.031479 99.0 
231.068329 793.0 
231.555847 95.0 
232.067688 570.0 
233.075897 409.0 
235.060135 3239.0 
237.038452 132.0 
237.076599 147.0 
238.083633 167.0 
239.087677 663.0 
240.067612 182.0 
241.083496 114.0 
242.038757 325.0 
243.064255 1136.0 
245.019714 126.0 
245.041183 207.0 
245.078979 453.0 
246.078598 277.0 
247.061752 2255.0 
248.074127 336.0 
249.047516 314.0 
251.08989 477.0 
253.477325 199.0 
255.062241 339.0 
257.042023 139.0 
257.078949 1273.0 
258.07843 166.0 
259.058289 2382.0 
259.098663 317.0 
260.0336 190.0 
260.067474 188.0 
261.039337 138.0 
261.072998 1874.0 
261.658569 325.0 
262.078064 170.0 
263.077972 174.0 
265.056396 545.0 
265.692963 272.0 
266.734528 310.0 
267.062012 377.0 
269.04071 137.0 
269.085663 637.0 
269.466766 269.0 
270.096832 196.0 
271.01828 89.0 
271.056335 513.0 
271.778473 159.0 
272.055878 547.0 
273.029175 101.0 
273.075714 785.0 
273.109497 127.0 
274.849548 122.0 
275.036621 223.0 
275.090485 11536.0 
275.140564 132.0 
276.090393 910.0 
276.341675 237.0 
277.071869 1239.0 
277.10791 921.0 
279.059326 745.0 
279.086975 999.0 
280.088531 419.0 
281.042175 231.0 
281.084564 725.0 
283.021271 273.0 
283.089722 462.0 
283.456207 129.0 
285.079773 819.0 
286.066345 195.0 
287.055878 314.0 
287.08725 1793.0 
288.094025 636.0 
289.072174 1260.0 
290.087799 236.0 
291.074219 360.0 
292.068085 133.0 
292.25592 126.0 
292.583435 175.0 
292.727692 96.0 
292.898438 165.0 
293.015015 265.0 
293.101898 31875.0 
294.106781 4590.0 
294.590271 147.0 
295.064636 96.0 
295.106415 511.0 
296.032562 90.0 
296.080963 97.0 
297.075317 637.0 
299.04718 134.0 
299.090912 2660.0 
300.089844 571.0 
301.064697 466.0 
301.10144 839.0 
302.082977 300.0 
302.12439 169.0 
303.079224 603.0 
305.101624 113.0 
307.060547 414.0 
307.09436 260.0 
307.672699 121.0 
308.090057 158.0 
309.078491 152.0 
310.032379 114.0 
310.06842 118.0 
311.091187 2348.0 
312.084198 317.0 
313.067596 692.0 
314.073151 167.0 
315.086487 431.0 
316.063324 98.0 
317.064148 157.0 
317.099762 2886.0 
318.101898 518.0 
319.081757 136.0 
319.122101 151.0 
321.077789 382.0 
323.040924 206.0 
323.090546 1534.0 
325.1091 263.0 
326.069885 185.0 
326.109741 139.0 
327.090637 900.0 
329.064941 147.0 
329.104736 1247.0 
330.100037 114.0 
331.100098 198.0 
332.056885 308.0 
332.096619 341.0 
332.892975 143.0 
333.045593 151.0 
333.097931 125.0 
334.10321 93.0 
334.932495 160.0 
335.059082 110.0 
335.112366 6600.0 
335.443481 103.0 
335.706909 258.0 
336.113373 729.0 
337.066101 179.0 
337.126556 696.0 
338.070984 181.0 
338.793396 146.0 
339.081146 822.0 
340.070435 142.0 
340.405426 110.0 
341.102325 4922.0 
341.404327 83.0 
341.602417 123.0 
342.109009 1195.0 
343.075897 231.0 
343.11084 144.0 
345.06778 339.0 
346.913086 190.0 
347.08371 265.0 
348.071381 136.0 
348.124054 402.0 
348.235016 189.0 
349.096924 382.0 
351.080902 300.0 
352.091736 224.0 
352.128937 94.0 
353.102875 3328.0 
354.093658 514.0 
355.116302 313.0 
357.146973 144.0 
359.08609 338.0 
360.092102 445.0 
361.10672 487.0 
362.051514 196.0 
363.093018 1060.0 
364.088287 366.0 
365.102417 2600.0 
365.995361 85.0 
366.054749 187.0 
366.102051 912.0 
367.117767 2614.0 
368.114441 816.0 
368.701813 88.0 
369.092712 269.0 
369.132202 577.0 
370.028137 87.0 
371.053497 188.0 
371.111603 1466.0 
372.117249 387.0 
373.108551 178.0 
375.089874 312.0 
376.11853 201.0 
377.104065 2069.0 
378.034332 111.0 
378.100189 130.0 
379.082397 382.0 
379.117432 484.0 
381.094238 850.0 
382.104492 180.0 
382.138367 157.0 
383.110535 2633.0 
384.00293 91.0 
384.111176 597.0 
384.919342 134.0 
385.127411 2280.0 
386.058807 213.0 
386.130737 236.0 
387.078613 279.0 
387.132935 240.0 
388.09552 264.0 
389.123413 4685.0 
390.12207 335.0 
391.078156 379.0 
391.115997 2048.0 
393.087616 343.0 
393.123627 847.0 
394.087769 90.0 
394.134949 214.0 
394.871277 162.0 
395.110291 1838.0 
396.073059 98.0 
396.109497 305.0 
396.5271 138.0 
397.126648 1043.0 
399.091156 256.0 
399.14151 529.0 
400.110779 152.0 
401.12384 2787.0 
401.890381 160.0 
402.054596 102.0 
402.119995 803.0 
403.134491 1272.0 
404.145721 508.0 
405.093292 476.0 
405.153992 395.0 
406.054413 143.0 
406.104584 272.0 
407.073181 99.0 
407.114136 3176.0 
407.60434 201.0 
408.113129 755.0 
409.129608 2423.0 
410.129089 88.0 
411.086334 326.0 
411.13092 304.0 
411.9086 75.0 
413.128937 737.0 
414.100616 201.0 
414.128326 286.0 
415.138885 1611.0 
416.110474 160.0 
416.1474 234.0 
417.105377 677.0 
419.088287 400.0 
419.131744 1937.0 
419.816071 167.0 
421.038574 190.0 
421.134979 1249.0 
423.110748 277.0 
423.177948 292.0 
424.12677 138.0 
425.118439 707.0 
426.101349 131.0 
426.150177 113.0 
427.061707 123.0 
427.135529 1305.0 
427.178192 465.0 
428.137085 215.0 
429.134949 416.0 
431.059113 244.0 
431.132141 1243.0 
432.123352 146.0 
432.153229 200.0 
432.521545 102.0 
433.129181 652.0 
434.130157 125.0 
434.541016 229.0 
434.987427 102.0 
435.138916 855.0 
437.12085 1554.0 
439.137817 362.0 
440.127869 111.0 
441.117462 781.0 
443.138092 1433.0 
444.13205 350.0 
445.149017 3716.0 
446.140625 721.0 
447.131042 254.0 
451.134857 1077.0 
451.782867 133.0 
452.132812 366.0 
453.098907 177.0 
453.156311 212.0 
454.164948 103.0 
455.073639 185.0 
455.134277 1564.0 
456.137207 318.0 
457.122833 464.0 
457.150238 600.0 
458.141571 138.0 
459.133148 625.0 
461.152344 177.0 
462.113708 112.0 
463.138794 2268.0 
464.123566 197.0 
465.149475 476.0 
465.450165 141.0 
467.129456 302.0 
469.136261 2880.0 
470.147369 682.0 
470.320831 119.0 
471.137512 183.0 
473.139526 570.0 
473.236938 112.0 
475.139618 513.0 
477.139923 338.0 
479.127472 296.0 
480.073761 95.0 
480.160461 204.0 
481.010986 289.0 
481.168427 14059.0 
482.169434 2609.0 
483.135773 949.0 
483.363525 144.0 
484.168884 431.0 
485.118591 105.0 
485.427002 87.0 
487.151398 1283.0 
488.135498 353.0 
491.161377 146.0 
491.598083 184.0 
492.091034 122.0 
492.124695 199.0 
493.143433 326.0 
494.146118 229.0 
495.119354 242.0 
495.157928 253.0 
496.153198 323.0 
496.266449 261.0 
497.174622 257.0 
498.348602 107.0 
499.012543 120.0 
499.157837 3514.0 
500.167725 1267.0 
501.10556 191.0 
501.1716 2223.0 
502.173676 597.0 
503.146637 83.0 
505.149994 697.0 
507.543671 218.0 
509.15863 327.0 
511.141205 1490.0 
511.822601 106.0 
512.157593 437.0 
513.171143 1470.0 
514.160156 651.0 
515.155029 280.0 
517.092468 149.0 
517.171204 5840.0 
518.127747 276.0 
518.168091 1784.0 
519.180847 1375.0 
520.147339 126.0 
521.142334 390.0 
523.13031 698.0 
524.144226 298.0 
525.135803 126.0 
526.162292 100.0 
526.46228 289.0 
527.148315 499.0 
528.098022 108.0 
529.146912 548.0 
531.173706 691.0 
532.161743 142.0 
533.172607 84.0 
535.111267 96.0 
535.160645 1417.0 
535.291748 98.0 
536.18573 503.0 
537.210022 273.0 
538.170715 243.0 
539.120789 110.0 
539.181946 246.0 
541.026428 131.0 
541.150818 564.0 
542.1427 398.0 
544.139404 111.0 
545.131409 255.0 
546.15332 171.0 
547.157043 653.0 
548.150391 139.0 
549.173279 2261.0 
550.119629 270.0 
550.185669 203.0 
550.442627 110.0 
551.169556 386.0 
551.281677 81.0 
551.895142 154.0 
552.692932 81.0 
553.176086 425.0 
554.189819 331.0 
554.701111 253.0 
554.848328 135.0 
555.185486 483.0 
556.160339 640.0 
556.869507 145.0 
557.140747 111.0 
557.183472 135.0 
559.086426 130.0 
559.15387 1993.0 
560.164185 340.0 
561.170288 859.0 
562.166809 93.0 
563.037231 151.0 
563.15863 185.0 
564.17218 210.0 
565.15332 132.0 
567.067993 121.0 
567.186035 12806.0 
568.187317 3722.0 
568.50592 105.0 
569.193726 321.0 
569.675964 88.0 
570.004456 103.0 
571.153809 650.0 
572.15564 179.0 
573.143677 369.0 
573.185181 1206.0 
573.836731 98.0 
574.183838 449.0 
575.176636 129.0 
576.149475 177.0 
577.169128 2372.0 
578.078979 85.0 
578.178101 1036.0 
579.154114 546.0 
579.187317 839.0 
579.24115 165.0 
581.188232 150.0 
583.160889 455.0 
585.19043 243.0 
587.152588 115.0 
588.158752 128.0 
589.132202 108.0 
590.068909 178.0 
590.269409 94.0 
590.841248 247.0 
591.077271 104.0 
591.142212 445.0 
591.183167 2452.0 
592.099365 135.0 
592.135132 150.0 
592.197937 505.0 
593.184387 180.0 
595.177734 422.0 
595.509338 168.0 
596.904297 83.0 
597.191528 255.0 
598.190369 168.0 
599.20636 213.0 
601.173828 777.0 
602.179077 100.0 
603.188843 284.0 
607.181091 107.0 
609.192017 5181.0 
610.135803 107.0 
610.198853 1904.0 
611.219971 489.0 
612.657166 125.0 
615.193909 1392.0 
617.189819 190.0 
617.223145 254.0 
619.180542 186.0 
621.20166 180.0 
622.916443 181.0 
623.197876 120.0 
625.0802 118.0 
625.1875 121.0 
626.167542 130.0 
627.147766 201.0 
627.183899 557.0 
627.221924 612.0 
628.226868 164.0 
629.199402 276.0 
630.77478 133.0 
631.179932 94.0 
633.2005 2026.0 
634.202148 194.0 
635.205261 216.0 
639.215942 76.0 
640.218506 312.0 
641.100586 88.0 
643.184937 105.0 
645.196655 1625.0 
646.030396 167.0 
646.202271 759.0 
647.206055 670.0 
648.216919 364.0 
648.498291 201.0 
651.212708 818.0 
651.794739 164.0 
657.195618 130.0 
659.212952 554.0 
663.208435 4913.0 
664.217407 1096.0 
665.159912 295.0 
665.221497 2844.0 
666.867676 124.0 
667.203552 280.0 
669.209106 1022.0 
671.238525 153.0 
675.20752 158.0 
676.213257 285.0 
676.956421 185.0 
677.108337 153.0 
677.223145 609.0 
678.204407 92.0 
680.227356 156.0 
680.723022 164.0 
681.111084 199.0 
681.21521 11136.0 
682.091125 257.0 
682.220642 3256.0 
683.226624 1486.0 
684.223816 98.0 
686.945374 132.0 
687.235962 660.0 
688.253845 108.0 
694.000732 128.0 
696.225281 96.0 
697.247314 117.0 
698.852783 172.0 
699.072083 83.0 
699.12384 144.0 
699.224548 5959.0 
700.088318 208.0 
700.230652 2790.0 
701.21991 407.0 
702.211792 104.0 
703.23938 118.0 
705.234131 912.0 
706.227417 505.0 
707.234314 343.0 
711.212952 102.0 
713.231812 161.0 
714.245483 199.0 
719.219849 540.0 
721.246948 293.0 
723.237061 571.0 
737.241516 1713.0 
738.213928 426.0 
738.259033 610.0 
739.230896 182.0 
741.250854 531.0 
743.204346 127.0 
747.243408 218.0 
755.196838 138.0 
755.251343 2296.0 
756.261414 700.0 
757.261841 119.0 
759.28302 181.0 
761.244629 693.0 
762.237305 100.0 
773.267822 133.0 
779.261536 605.0 
785.233704 220.0 
789.256104 126.0 
789.30127 302.0 
791.239502 349.0 
793.070435 103.0 
793.181091 126.0 
794.283447 162.0 
797.26709 511.0 
798.267212 252.0 
803.244995 132.0 
809.273254 196.0 
811.255981 123.0 
815.250244 105.0 
817.261902 102.0 
827.265259 119.0 
833.257446 586.0 
834.267273 123.0 
835.190186 98.0 
845.304626 338.0 
850.862549 120.0 
851.285339 419.0 
861.451599 176.0 
869.294861 889.0 
870.096985 137.0 
870.283508 255.0 
871.274902 97.0 
871.435547 83.0 
884.259277 111.0 
887.181824 153.0 
887.294739 1649.0 
888.299988 581.0 
889.295044 548.0 
901.325073 164.0 
907.263733 225.0 
1034.581299 96.0 
1286.770996 287.0 
1345.881836 203.0 
1375.805298 143.0 
1591.374146 204.0 
1622.073242 216.0 
1652.702881 261.0 
1663.114014 177.0 
1799.300171 273.0 
1842.930664 173.0 
1849.969971 169.0 
1874.30481 142.0 
1937.462036 295.0 
1941.990967 327.0 
1965.182373 197.0 
END IONS

BEGIN IONS
TITLE=Scan Number: 431
PEPMASS=1050.38
CHARGE=1+
MSLEVEL=2
FILENAME=A9_BA9_01_2841.mzXML
INSTRUMENT=ion trap
SCANS=431
SMILES=CC1OC(OC2C(C)OC(OC3C(C)OC(C(O)C3O)C4=C(O)C=C(OC5OC(CO)C(O)C5O)C(C(=O)CCC6=CC=C(O)C=C6)=C4O)C(O)C2OC(=O)\C=C\C7=CC=C(O)C=C7)C(O)C(O)C1OC(C)=O
INCHIKEY=RMVGZKPTURZUMZ-MHWRWJLKSA-N
71.012405 269.0 
71.048363 563.0 
71.936493 264.0 
73.027008 657.0 
75.044289 3336.0 
75.099075 170.0 
78.20694 122.0 
82.730309 136.0 
83.047997 4468.0 
84.053665 627.0 
84.960785 85.0 
85.027908 2786.0 
86.029114 175.0 
87.039726 226.0 
91.058403 216.0 
92.915756 262.0 
93.355614 82.0 
94.429771 249.0 
97.018044 373.0 
98.074944 185.0 
99.04409 492.0 
101.057495 209.0 
103.041931 278.0 
104.424408 217.0 
105.045357 179.0 
107.048515 9483.0 
108.051285 1182.0 
108.366913 285.0 
108.981453 229.0 
110.887466 146.0 
111.043404 10193.0 
111.411591 192.0 
112.044464 796.0 
113.023819 222.0 
113.065849 104.0 
113.675255 93.0 
115.037575 1224.0 
117.055 796.0 
117.199257 287.0 
117.337517 88.0 
119.049873 2925.0 
120.047813 132.0 
120.223839 306.0 
120.909081 189.0 
121.020622 319.0 
122.55851 113.0 
126.840782 125.0 
127.039513 1108.0 
128.045609 250.0 
128.988861 144.0 
129.021942 192.0 
129.053955 8241.0 
130.058578 851.0 
131.046158 198.0 
132.627716 247.0 
133.048782 806.0 
135.040344 113.0 
139.04155 384.0 
139.782974 121.0 
144.831619 138.0 
145.044754 193.0 
146.068268 190.0 
146.424438 135.0 
146.46936 148.0 
146.614975 309.0 
146.745758 252.0 
146.852295 263.0 
146.941971 89.0 
147.043457 184855.0 
147.288788 88.0 
147.317719 89.0 
147.349792 98.0 
147.440567 156.0 
147.475876 115.0 
147.526413 86.0 
147.963669 210.0 
148.046463 15181.0 
148.16745 129.0 
148.393265 91.0 
149.053101 1420.0 
149.119385 242.0 
149.286697 83.0 
149.334412 190.0 
149.896988 73.0 
150.167084 90.0 
150.222412 127.0 
151.038971 301.0 
157.987305 131.0 
158.761307 236.0 
159.018036 258.0 
159.042587 319.0 
159.070572 187.0 
161.058502 397.0 
165.053879 732.0 
169.047836 270.0 
170.044434 168.0 
170.762497 136.0 
171.008881 443.0 
171.035507 256.0 
171.065384 11398.0 
171.110443 271.0 
172.067413 280.0 
173.080368 205.0 
174.081711 153.0 
175.037552 428.0 
176.039825 122.0 
177.049042 103.0 
179.071411 214.0 
181.051559 1470.0 
183.58815 292.0 
185.061371 271.0 
187.037537 213.0 
189.074677 13842.0 
190.052765 328.0 
190.078506 1081.0 
190.987442 135.0 
191.03125 272.0 
191.069321 176.0 
191.48674 122.0 
192.996964 123.0 
193.048477 3465.0 
193.088379 137.0 
194.049789 342.0 
195.034424 145.0 
195.06662 946.0 
196.659729 102.0 
197.087845 226.0 
199.061493 171.0 
201.05397 186.0 
202.050217 319.0 
203.031906 317.0 
203.07431 286.0 
205.048843 821.0 
205.626724 137.0 
207.026871 188.0 
207.07225 153.0 
211.060547 1108.0 
213.0513 208.0 
213.090851 99.0 
215.068268 142.0 
216.055374 204.0 
217.049194 967.0 
219.016922 126.0 
219.064346 1545.0 
220.069626 697.0 
221.082779 176.0 
223.060043 398.0 
225.074997 409.0 
228.802734 271.0 
229.044891 219.0 
230.053818 206.0 
231.067139 1137.0 
233.038132 306.0 
233.081223 360.0 
234.08255 73.0 
235.057434 2034.0 
236.065964 400.0 
237.073227 447.0 
238.08255 94.0 
239.086792 328.0 
241.053101 160.0 
242.661621 97.0 
243.09198 533.0 
245.046722 116.0 
247.010773 240.0 
249.006302 147.0 
249.529587 90.0 
250.003433 228.0 
251.057281 336.0 
251.089966 1157.0 
253.01506 208.0 
253.087021 496.0 
253.980972 205.0 
255.061874 539.0 
257.020416 101.0 
257.075256 991.0 
258.078552 141.0 
258.991425 178.0 
259.058655 739.0 
259.096649 189.0 
259.323883 116.0 
260.065155 113.0 
261.073761 1920.0 
262.173676 256.0 
263.057648 165.0 
264.095367 347.0 
265.067657 392.0 
267.066559 513.0 
267.258209 171.0 
268.063385 180.0 
268.8909 209.0 
270.77301 202.0 
270.990692 124.0 
271.020508 137.0 
271.0625 133.0 
271.155701 181.0 
273.010162 311.0 
273.067322 196.0 
275.091705 9192.0 
276.093719 1258.0 
277.067688 262.0 
278.076965 243.0 
278.949097 120.0 
279.007111 165.0 
279.090057 1012.0 
279.255768 141.0 
280.082581 95.0 
281.088196 397.0 
282.521545 111.0 
285.071594 837.0 
287.091888 1261.0 
289.065216 126.0 
291.089661 414.0 
292.134125 258.0 
292.560577 115.0 
293.028839 528.0 
293.101715 23372.0 
293.820679 90.0 
294.067139 168.0 
294.105804 4661.0 
294.892761 117.0 
295.062317 140.0 
295.108429 740.0 
297.076447 594.0 
299.090851 2153.0 
300.097107 225.0 
300.354309 327.0 
301.070099 389.0 
302.068451 162.0 
303.090515 442.0 
305.057434 240.0 
309.026611 330.0 
309.06842 285.0 
311.055206 419.0 
311.091797 807.0 
312.073883 235.0 
315.104492 160.0 
317.03595 169.0 
317.101135 2752.0 
317.75592 94.0 
318.109985 481.0 
319.110657 278.0 
320.068237 195.0 
320.360229 142.0 
321.078247 585.0 
321.107971 417.0 
321.913971 125.0 
323.092163 380.0 
324.096191 174.0 
325.103912 339.0 
326.097748 245.0 
327.038025 264.0 
327.098602 322.0 
327.991241 298.0 
328.05545 258.0 
328.104584 138.0 
329.075439 131.0 
329.109283 267.0 
329.472748 145.0 
332.585785 124.0 
333.084961 267.0 
334.818481 80.0 
335.037811 304.0 
335.112274 9902.0 
336.111206 1321.0 
337.03299 393.0 
337.115936 354.0 
337.145386 242.0 
337.253937 134.0 
338.049774 113.0 
339.052124 113.0 
339.115601 265.0 
341.064697 382.0 
341.100983 4409.0 
342.101959 782.0 
343.044006 142.0 
343.109161 128.0 
347.080719 127.0 
347.13028 212.0 
348.076782 223.0 
350.060028 250.0 
351.130493 116.0 
353.06778 256.0 
353.101166 1082.0 
354.052521 115.0 
355.052429 719.0 
356.047241 137.0 
357.102356 852.0 
359.126892 145.0 
361.048706 122.0 
363.092621 174.0 
365.092438 413.0 
365.761017 175.0 
366.926849 188.0 
366.979462 118.0 
367.043121 367.0 
367.117188 4784.0 
368.118439 1076.0 
369.099396 278.0 
370.079254 209.0 
371.072998 212.0 
371.125 421.0 
373.062866 998.0 
373.108368 149.0 
374.953888 81.0 
375.077026 166.0 
375.125977 127.0 
379.049011 302.0 
379.114532 524.0 
381.094727 257.0 
383.114319 990.0 
384.117523 122.0 
385.060486 613.0 
385.127411 2611.0 
385.528961 174.0 
386.138245 1434.0 
387.067108 407.0 
387.143921 265.0 
388.676483 128.0 
389.106812 694.0 
391.072815 187.0 
391.114014 917.0 
393.048157 102.0 
394.109344 129.0 
395.046631 133.0 
395.113251 471.0 
396.057648 118.0 
396.110748 165.0 
397.057007 1749.0 
397.127533 343.0 
398.073181 171.0 
399.091614 148.0 
399.222351 218.0 
401.074341 102.0 
401.117188 773.0 
403.071869 113.0 
403.139618 3477.0 
404.141235 570.0 
405.108459 154.0 
405.158356 269.0 
406.112457 220.0 
407.045624 159.0 
407.114502 1087.0 
408.101196 180.0 
408.129883 209.0 
409.0755 305.0 
409.132568 1124.0 
410.121399 104.0 
411.115692 288.0 
413.107208 544.0 
413.582275 87.0 
415.060669 324.0 
415.135254 234.0 
416.068451 326.0 
417.137817 639.0 
419.124481 996.0 
419.661682 173.0 
420.111969 236.0 
421.065491 87.0 
421.129883 656.0 
421.152588 696.0 
422.161255 291.0 
423.074432 1189.0 
423.141357 90.0 
424.989166 129.0 
425.087006 215.0 
425.147034 150.0 
425.523254 158.0 
426.044312 145.0 
427.135498 1303.0 
427.338837 192.0 
428.125214 93.0 
429.141968 351.0 
430.15744 103.0 
431.11731 429.0 
432.105713 112.0 
433.131042 516.0 
434.178406 276.0 
435.15097 270.0 
437.090851 306.0 
439.072815 116.0 
439.155426 518.0 
441.084229 1504.0 
441.149567 478.0 
441.474731 171.0 
442.078156 448.0 
443.138672 370.0 
445.054932 192.0 
445.140198 2188.0 
446.145874 722.0 
447.13562 171.0 
451.140472 366.0 
451.244812 111.0 
455.144012 96.0 
457.085175 148.0 
457.158356 296.0 
459.100128 809.0 
460.095764 480.0 
461.119629 127.0 
463.156891 2237.0 
463.974915 212.0 
464.162811 441.0 
465.06308 194.0 
465.16449 262.0 
467.089813 178.0 
468.769684 296.0 
469.088745 106.0 
469.141602 1557.0 
470.152557 309.0 
471.148224 236.0 
474.080505 119.0 
474.151093 181.0 
475.049469 222.0 
475.138428 302.0 
476.153595 135.0 
477.14328 367.0 
477.189545 233.0 
478.085754 100.0 
478.157898 248.0 
479.128784 90.0 
481.165863 6523.0 
482.094269 255.0 
482.17041 1314.0 
482.229218 168.0 
483.100494 623.0 
483.168854 837.0 
484.175568 176.0 
484.986359 119.0 
485.108521 349.0 
485.158295 476.0 
487.148438 763.0 
488.168274 209.0 
491.103668 138.0 
493.142059 301.0 
495.102539 272.0 
495.158203 727.0 
496.146606 184.0 
497.192352 97.0 
498.183563 156.0 
498.906525 236.0 
499.146973 871.0 
501.203552 202.0 
501.569794 74.0 
505.145538 302.0 
506.146606 100.0 
509.133575 414.0 
511.156464 1240.0 
511.608826 87.0 
512.072632 126.0 
513.172485 621.0 
514.009094 72.0 
514.150391 88.0 
517.166321 1130.0 
518.166687 333.0 
518.960083 84.0 
519.088135 249.0 
519.143311 144.0 
519.188538 119.0 
521.121521 125.0 
523.13678 110.0 
525.142273 230.0 
529.165894 448.0 
531.120056 163.0 
531.16687 956.0 
532.174561 664.0 
535.159668 118.0 
535.195435 302.0 
536.64917 242.0 
537.154663 473.0 
541.13385 148.0 
542.152222 145.0 
549.17511 3023.0 
550.189819 1362.0 
551.184326 109.0 
553.161072 480.0 
554.163147 141.0 
555.164124 548.0 
556.149475 127.0 
556.194824 105.0 
557.18457 91.0 
558.195374 224.0 
559.072266 141.0 
559.164673 555.0 
560.170532 136.0 
561.117188 168.0 
561.172974 413.0 
564.607422 112.0 
564.700928 105.0 
565.156616 117.0 
565.658325 96.0 
565.795959 112.0 
567.116577 1232.0 
567.184753 28590.0 
567.7276 141.0 
567.865295 176.0 
568.191345 8159.0 
568.394714 129.0 
568.819397 106.0 
569.129883 90.0 
569.193848 1007.0 
569.957214 101.0 
570.202942 159.0 
570.940247 132.0 
571.2854 110.0 
572.178589 86.0 
573.181763 770.0 
574.156006 129.0 
574.194946 194.0 
575.208679 153.0 
575.944275 170.0 
576.225281 137.0 
577.168152 852.0 
578.145996 89.0 
579.094666 143.0 
579.194397 610.0 
580.193176 312.0 
581.155396 166.0 
583.191467 154.0 
586.190979 124.0 
587.15332 342.0 
588.349915 132.0 
589.147705 114.0 
591.120178 100.0 
591.190125 1864.0 
592.191772 509.0 
593.198975 187.0 
595.166565 152.0 
596.191528 118.0 
603.188904 202.0 
605.129822 113.0 
609.195007 3258.0 
610.198364 1338.0 
612.153931 123.0 
615.195129 490.0 
616.189453 135.0 
627.212952 210.0 
629.135864 78.0 
631.1922 202.0 
633.202332 477.0 
634.132324 93.0 
634.209412 306.0 
636.54834 141.0 
640.188477 136.0 
641.092529 153.0 
641.185242 175.0 
642.203613 192.0 
645.200928 805.0 
646.137939 121.0 
646.21698 392.0 
647.161011 323.0 
647.209534 275.0 
648.231201 275.0 
651.171509 108.0 
651.236084 91.0 
652.213623 254.0 
655.180664 127.0 
657.199097 191.0 
658.228149 274.0 
659.120911 175.0 
659.201538 1340.0 
660.063416 115.0 
660.223877 179.0 
661.233765 310.0 
663.205872 1505.0 
664.215271 151.0 
664.262878 180.0 
665.138 274.0 
665.222717 747.0 
667.237976 146.0 
669.221497 99.0 
675.204224 393.0 
677.227783 583.0 
678.219238 356.0 
680.026123 99.0 
681.086487 106.0 
681.212463 3058.0 
682.215027 1338.0 
683.230896 335.0 
684.21759 113.0 
687.240173 142.0 
687.619141 138.0 
689.365723 99.0 
697.260681 119.0 
699.078857 101.0 
699.234741 2350.0 
700.127747 123.0 
700.228577 416.0 
701.169617 323.0 
701.204956 302.0 
703.790222 156.0 
704.183228 84.0 
705.193726 283.0 
706.243408 164.0 
719.114624 119.0 
719.232361 1056.0 
720.229858 304.0 
721.238892 227.0 
723.254395 249.0 
724.241821 115.0 
728.227234 106.0 
736.81311 143.0 
737.112488 191.0 
737.246826 4265.0 
737.971497 82.0 
738.244263 1412.0 
739.236633 325.0 
741.262878 181.0 
743.277893 134.0 
745.1745 114.0 
746.231079 173.0 
746.721619 153.0 
747.243713 115.0 
752.228455 188.0 
755.086487 129.0 
755.251831 6954.0 
756.260254 1799.0 
757.255432 868.0 
761.272583 146.0 
774.711182 168.0 
774.761047 157.0 
779.255371 595.0 
793.19751 1584.0 
794.195435 230.0 
795.202759 191.0 
797.261169 171.0 
799.262939 180.0 
808.246155 90.0 
811.198975 125.0 
827.102905 289.0 
830.32782 243.0 
833.293579 190.0 
834.270874 138.0 
836.20697 163.0 
840.269958 168.0 
840.751465 153.0 
851.291809 592.0 
852.29071 390.0 
867.221313 169.0 
869.280334 733.0 
874.463989 102.0 
879.30603 116.0 
887.289856 1115.0 
888.28125 183.0 
901.304016 102.0 
903.253113 95.0 
907.254272 273.0 
909.114746 108.0 
913.284424 1153.0 
913.773926 525.0 
925.225647 183.0 
934.121948 130.0 
967.308716 227.0 
970.789124 259.0 
971.257629 144.0 
980.223938 151.0 
981.152832 142.0 
997.270264 148.0 
1052.312866 820.0 
1052.826904 447.0 
1053.218384 151.0 
1055.291138 83.0 
1055.366699 126.0 
1055.486206 101.0 
1056.421509 98.0 
1071.206055 164.0 
1071.311646 670.0 
1072.316528 547.0 
1073.293335 136.0 
1089.311401 146.0 
1158.212158 306.0 
1267.09021 234.0 
1328.511963 90.0 
1343.500732 247.0 
1605.463013 115.0 
1654.600586 272.0 
1692.647217 236.0 
1740.920166 143.0 
1827.468018 109.0 
END IONS

BEGIN IONS
TITLE=Scan Number: 432
PEPMASS=286.17999
CHARGE=1+
MSLEVEL=2
FILENAME=G10_GG10_01_2648.mzXML
INSTRUMENT=ion trap
SCANS=432
SMILES=OC1C(O)C(CCC1C2=CC=CC=C2)C3=CC=CC=C3
INCHIKEY=KIDYUEHQXIEBGK-UHFFFAOYSA-N
79.053329 218.0 
91.055382 13271.0 
91.230797 206.0 
92.057419 1657.0 
92.094536 110.0 
97.657127 154.0 
103.047729 203.0 
105.035408 137.0 
105.069359 1285.0 
106.074745 208.0 
115.053734 1456.0 
116.060654 207.0 
117.070732 2723.0 
118.067513 358.0 
119.085617 353.0 
127.052803 398.0 
128.063416 1761.0 
129.045517 404.0 
129.070084 15116.0 
129.909119 61.0 
130.074966 852.0 
131.087311 915.0 
132.086212 289.0 
133.066803 116.0 
137.693756 120.0 
141.071487 740.0 
142.074036 357.0 
143.087616 129.0 
145.100662 849.0 
147.080154 425.0 
149.099136 162.0 
152.062744 409.0 
153.069687 271.0 
154.074631 151.0 
155.062881 521.0 
155.086502 2801.0 
156.063507 180.0 
157.435974 101.0 
159.078079 127.0 
162.099213 135.0 
165.06839 164.0 
167.038223 259.0 
167.087021 991.0 
173.10704 165.0 
178.073883 148.0 
189.067825 178.0 
190.082092 419.0 
191.090042 847.0 
192.091873 172.0 
203.077225 203.0 
204.106598 289.0 
205.101059 926.0 
206.102158 209.0 
218.111862 276.0 
233.059952 185.0 
233.133911 8860.0 
234.1371 1591.0 
240.234497 157.0 
251.146439 471.0 
252.145462 143.0 
1398.255859 226.0 
1403.910522 80.0 
END IONS

BEGIN IONS
TITLE=Scan Number: 434
PEPMASS=427.19601
CHARGE=1+
MSLEVEL=2
FILENAME=G10_GG10_01_2648.mzXML
INSTRUMENT=ion trap
SCANS=434
SMILES=COC(=O)C(=C)C1C(O)C2C(CCC(O)C2(C)CC1OC(=O)C(=C)C(O)CO)C=O
INCHIKEY=KCSPYQSCNFOIII-UHFFFAOYSA-N
79.055054 640.0 
81.032059 231.0 
91.05188 625.0 
91.783127 88.0 
92.056824 217.0 
93.0355 220.0 
93.069641 608.0 
94.034012 152.0 
94.05587 133.0 
95.052345 198.0 
95.086052 474.0 
97.028221 443.0 
97.063141 204.0 
101.061401 202.0 
105.042374 137.0 
105.069847 2266.0 
107.080399 214.0 
109.060593 533.0 
109.392967 277.0 
109.698799 150.0 
115.039276 427.0 
115.053223 533.0 
115.170425 98.0 
116.060829 142.0 
116.983017 291.0 
117.069832 5429.0 
117.1045 271.0 
118.075317 679.0 
119.043007 735.0 
119.085052 2503.0 
119.906929 249.0 
120.088509 187.0 
120.91011 184.0 
121.065315 278.0 
122.074402 120.0 
123.047279 119.0 
123.078888 134.0 
124.045883 155.0 
125.061066 308.0 
127.201653 227.0 
128.02179 86.0 
128.063248 2964.0 
129.069717 3797.0 
130.075638 1160.0 
131.045029 360.0 
131.085342 2198.0 
132.088242 524.0 
133.012375 239.0 
133.030411 213.0 
133.063141 1038.0 
133.101532 986.0 
134.032761 314.0 
134.068466 136.0 
134.102081 351.0 
135.082123 217.0 
135.353378 209.0 
137.060837 185.0 
141.071777 1744.0 
141.117538 144.0 
142.080765 1038.0 
143.032013 478.0 
143.053253 348.0 
143.085922 11289.0 
144.060944 141.0 
144.087997 1977.0 
145.038498 105.0 
145.064163 2449.0 
145.101974 4291.0 
145.615219 123.0 
146.102753 771.0 
147.082108 1638.0 
147.11702 939.0 
147.42749 100.0 
149.056458 404.0 
150.989273 110.0 
151.071304 393.0 
153.068008 909.0 
153.412003 141.0 
153.558319 110.0 
154.079224 668.0 
154.55249 232.0 
155.062531 809.0 
155.084549 2130.0 
156.055908 688.0 
156.093399 2784.0 
157.066284 566.0 
157.100143 1469.0 
157.24588 122.0 
157.451996 180.0 
158.073166 633.0 
158.107574 253.0 
159.042633 120.0 
159.078079 1048.0 
159.116302 589.0 
160.120346 150.0 
161.058701 544.0 
161.09613 601.0 
161.134781 389.0 
161.208664 167.0 
162.101639 212.0 
162.136871 129.0 
162.226135 91.0 
163.079544 401.0 
164.09877 170.0 
165.072021 2128.0 
166.077133 2132.0 
166.650818 165.0 
167.081894 642.0 
168.091248 263.0 
169.040115 240.0 
169.06749 172.0 
169.100494 1504.0 
170.103867 135.0 
171.056381 223.0 
171.0802 2172.0 
171.117676 12365.0 
172.091644 208.0 
172.121002 1352.0 
173.061096 136.0 
173.098358 1361.0 
173.1315 237.0 
174.100388 141.0 
174.539047 134.0 
175.076538 1060.0 
175.111786 1037.0 
176.112808 191.0 
177.053238 294.0 
177.092072 1406.0 
177.529327 74.0 
179.08223 381.0 
179.112045 179.0 
181.069748 101.0 
181.101624 7152.0 
181.313431 95.0 
182.105103 940.0 
183.081223 1031.0 
183.121262 528.0 
184.086441 972.0 
185.048981 313.0 
185.100616 264.0 
187.076096 337.0 
187.108963 286.0 
188.891159 245.0 
189.092667 519.0 
189.126892 1998.0 
190.131485 360.0 
191.111649 1182.0 
194.07785 136.0 
195.07933 286.0 
197.093689 672.0 
198.096832 278.0 
199.112488 16929.0 
200.113663 1704.0 
201.095596 199.0 
201.764297 95.0 
202.110657 86.0 
202.98999 184.0 
203.066803 398.0 
203.106094 2079.0 
203.143005 113.0 
203.401184 88.0 
203.758804 120.0 
204.113068 894.0 
205.091187 318.0 
205.119446 162.0 
209.093811 949.0 
212.07579 122.0 
213.13147 163.0 
215.103561 480.0 
216.748108 175.0 
217.123199 7732.0 
218.126205 1089.0 
219.10527 132.0 
219.608398 103.0 
226.554245 92.0 
226.92157 158.0 
227.108063 8619.0 
229.117294 255.0 
231.03772 189.0 
231.094925 143.0 
231.135254 1955.0 
232.138947 203.0 
235.137573 276.0 
240.138428 90.0 
241.124222 891.0 
245.116653 6769.0 
246.121628 934.0 
247.137985 521.0 
249.153595 375.0 
259.13504 3993.0 
260.137573 586.0 
263.128662 1484.0 
264.127106 418.0 
264.601868 123.0 
277.092133 190.0 
277.144592 6947.0 
277.422302 126.0 
278.144623 659.0 
291.560303 292.0 
295.153229 2323.0 
296.161713 230.0 
323.104401 83.0 
349.137665 124.0 
387.497559 101.0 
411.119659 96.0 
426.261841 177.0 
1301.739746 146.0 
1782.458374 221.0 
1834.580566 375.0 
END IONS

BEGIN IONS
TITLE=Scan Number: 435
PEPMASS=444.22299
CHARGE=1+
MSLEVEL=2
FILENAME=G10_GG10_01_2648.mzXML
INSTRUMENT=ion trap
SCANS=435
SMILES=COC(=O)C(=C)C1C(O)C2C(CCC(O)C2(C)CC1OC(=O)C(=C)C(O)CO)C=O
INCHIKEY=KCSPYQSCNFOIII-UHFFFAOYSA-N
78.898911 263.0 
82.055946 167.0 
83.047188 346.0 
83.670189 331.0 
89.445206 306.0 
91.055916 368.0 
93.031281 876.0 
97.025986 575.0 
105.029755 161.0 
105.046944 180.0 
105.07061 1305.0 
106.080582 185.0 
107.046936 118.0 
107.084007 107.0 
107.122681 135.0 
107.346802 211.0 
108.042412 215.0 
111.04512 175.0 
115.038475 221.0 
116.051926 135.0 
117.068985 3442.0 
118.072929 514.0 
119.050888 752.0 
119.083298 2077.0 
121.065536 966.0 
123.080658 342.0 
125.058578 107.0 
128.062469 477.0 
129.068268 2784.0 
130.077713 315.0 
131.085861 2207.0 
132.089233 493.0 
133.042664 208.0 
133.066574 617.0 
133.100067 437.0 
135.080704 524.0 
135.115768 383.0 
137.061417 151.0 
137.095993 152.0 
139.038086 144.0 
141.043274 271.0 
141.070953 1293.0 
142.079361 710.0 
143.087189 9143.0 
143.519073 192.0 
144.090057 965.0 
145.063522 989.0 
145.103104 2882.0 
146.070465 756.0 
146.104141 263.0 
147.043716 179.0 
147.080536 929.0 
147.115982 321.0 
148.74028 321.0 
149.060776 514.0 
149.095337 265.0 
151.079315 334.0 
152.079117 121.0 
153.067917 482.0 
154.068466 270.0 
155.087082 2290.0 
156.093094 1291.0 
157.06488 560.0 
157.09938 1753.0 
158.071518 365.0 
159.080093 945.0 
159.118408 157.0 
160.115952 272.0 
160.802353 102.0 
161.028687 249.0 
161.063934 261.0 
161.097107 667.0 
161.133347 459.0 
163.067444 301.0 
165.073624 520.0 
165.095657 577.0 
165.18605 203.0 
166.078293 963.0 
167.084381 457.0 
168.09819 146.0 
169.03212 225.0 
169.101791 2506.0 
169.322723 159.0 
169.811981 127.0 
170.10112 246.0 
171.003113 123.0 
171.081696 1402.0 
171.117447 9250.0 
171.26828 212.0 
172.089264 211.0 
172.122528 1196.0 
173.059006 162.0 
173.09671 2152.0 
174.084335 251.0 
175.072189 1021.0 
175.114059 884.0 
176.115677 179.0 
177.090088 1097.0 
177.128906 145.0 
178.062759 341.0 
179.032715 241.0 
179.103729 571.0 
179.85318 85.0 
180.087509 154.0 
181.101456 3430.0 
182.072021 178.0 
182.102325 124.0 
183.081253 652.0 
183.122574 166.0 
184.083923 366.0 
185.098618 187.0 
186.101852 267.0 
187.112411 395.0 
189.093277 399.0 
189.127289 635.0 
190.097672 354.0 
190.130081 233.0 
191.112747 364.0 
196.12085 115.0 
197.094696 268.0 
199.073242 515.0 
199.112564 14052.0 
199.832092 129.0 
199.925995 407.0 
199.955658 150.0 
200.006104 106.0 
200.067505 160.0 
200.113693 2002.0 
201.09256 643.0 
201.135193 318.0 
201.351349 124.0 
201.532333 107.0 
202.091461 206.0 
203.076569 263.0 
203.107574 2395.0 
203.148361 117.0 
204.108734 193.0 
205.114197 332.0 
205.335464 114.0 
207.104309 204.0 
209.099503 1598.0 
209.322067 209.0 
211.071365 182.0 
214.145569 163.0 
214.294556 86.0 
215.107681 1007.0 
216.33371 145.0 
217.065567 115.0 
217.123489 6117.0 
218.123764 734.0 
219.10025 220.0 
225.089233 274.0 
226.706451 216.0 
227.109192 6599.0 
228.108658 1101.0 
231.105881 100.0 
231.137024 1131.0 
232.146805 219.0 
241.122131 827.0 
242.11235 354.0 
244.100159 175.0 
244.991257 132.0 
245.118484 5636.0 
246.121094 1212.0 
249.147461 445.0 
251.926147 93.0 
252.027756 107.0 
259.134644 4809.0 
260.142456 640.0 
261.110626 99.0 
262.111023 182.0 
263.126251 1442.0 
265.108002 145.0 
277.099701 197.0 
277.144684 5756.0 
278.148773 969.0 
279.126617 226.0 
295.155029 6824.0 
296.157379 747.0 
300.090332 138.0 
300.616272 214.0 
317.143982 180.0 
339.128906 161.0 
345.133728 123.0 
359.109344 139.0 
437.145447 125.0 
443.272614 99.0 
478.09494 157.0 
1794.406372 139.0 
1848.96521 245.0 
1895.873291 184.0 
END IONS

BEGIN IONS
TITLE=Scan Number: 437
PEPMASS=881.328
CHARGE=1+
MSLEVEL=2
FILENAME=G10_GG10_01_2648.mzXML
INSTRUMENT=ion trap
SCANS=437
SMILES=OCCC(=C)C(=O)OCC1OCC(OC(=O)C(=C)CCO[C@@H]2O[C@H](COC(=O)C(=C)CCO[C@@H]3O[C@H](COC(=O)C(=C)CCO)[C@@H](O)[C@H](O)[C@H]3O)[C@@H](O)[C@H](O)[C@H]2O)C(O)C1O
INCHIKEY=AEUAVVIPDJTEFS-YJCYQKNWSA-N
75.04203 342.0 
79.118324 164.0 
79.683456 217.0 
81.033905 10982.0 
81.07251 235.0 
82.143242 170.0 
83.048271 3496.0 
83.837036 147.0 
84.288986 110.0 
85.028961 8246.0 
85.127777 105.0 
85.906929 107.0 
86.110168 192.0 
86.353531 149.0 
87.044174 909.0 
87.089424 80.0 
87.337387 295.0 
91.039574 1985.0 
92.145889 323.0 
93.334846 209.0 
96.320229 267.0 
96.63298 155.0 
97.028038 3588.0 
98.255669 152.0 
98.447624 195.0 
98.52243 128.0 
98.686539 161.0 
98.753525 128.0 
98.817116 156.0 
98.927307 123.0 
98.946281 77.0 
98.965454 274.0 
98.997299 187.0 
99.044296 259956.0 
99.088448 157.0 
99.141144 99.0 
99.180054 93.0 
99.204468 234.0 
99.236336 172.0 
99.279739 329.0 
99.401566 124.0 
99.448578 203.0 
99.642227 153.0 
99.829071 93.0 
99.894341 207.0 
99.920601 311.0 
99.97435 153.0 
100.04718 11880.0 
100.158371 152.0 
100.217567 142.0 
100.277237 101.0 
100.355255 97.0 
100.438141 137.0 
100.679489 156.0 
100.809753 95.0 
101.022141 260.0 
101.056686 1148.0 
101.144974 154.0 
101.940491 65.0 
102.057495 134.0 
102.908485 183.0 
103.03894 2213.0 
103.566574 133.0 
104.750351 168.0 
105.064453 159.0 
105.511597 157.0 
105.868843 231.0 
106.212463 202.0 
109.02887 10008.0 
110.032471 841.0 
110.76178 87.0 
111.044838 10199.0 
112.047318 739.0 
113.78569 74.0 
114.470932 139.0 
115.039215 136.0 
116.940628 128.0 
117.055084 31494.0 
117.100853 113.0 
117.256416 150.0 
117.348373 159.0 
118.058243 2102.0 
119.032753 141.0 
119.056686 494.0 
119.277924 75.0 
119.826431 244.0 
120.471603 208.0 
121.10218 103.0 
122.325485 94.0 
123.045311 412.0 
124.077202 113.0 
125.023453 289.0 
125.770546 253.0 
126.898628 114.0 
127.004555 177.0 
127.039665 15280.0 
127.129517 75.0 
127.162003 158.0 
128.041565 851.0 
128.135315 118.0 
129.055237 24865.0 
129.13588 92.0 
130.058243 1489.0 
130.4664 94.0 
131.068268 676.0 
131.463699 235.0 
133.064468 176.0 
135.011658 162.0 
135.047653 147.0 
135.077255 167.0 
135.117859 177.0 
137.063034 428.0 
137.304596 115.0 
138.292862 182.0 
139.041382 173.0 
141.05481 1377.0 
144.044418 155.0 
145.049835 11944.0 
145.126953 228.0 
146.031876 235.0 
146.058014 510.0 
146.741333 191.0 
147.065552 12311.0 
147.118256 134.0 
147.179398 118.0 
148.040863 253.0 
148.071487 597.0 
149.048859 134.0 
149.071121 190.0 
150.080307 188.0 
151.038773 614.0 
151.078903 155.0 
152.043304 375.0 
152.069305 252.0 
157.048767 376.0 
159.064804 1384.0 
159.523361 157.0 
161.056229 317.0 
161.992065 292.0 
163.06015 1848.0 
165.076813 12887.0 
165.25145 78.0 
166.07988 1458.0 
167.087112 330.0 
169.051712 883.0 
169.240021 122.0 
170.053116 218.0 
170.615311 107.0 
171.068054 281.0 
173.044739 196.0 
175.064285 216.0 
177.056152 210.0 
178.770386 188.0 
179.0755 729.0 
181.049454 1221.0 
182.052032 200.0 
183.071503 703.0 
183.51889 282.0 
184.072128 152.0 
184.612854 199.0 
185.078064 189.0 
187.059204 638.0 
189.053543 187.0 
189.080887 526.0 
193.054245 597.0 
195.069168 143.0 
197.043961 181.0 
199.646286 234.0 
201.074005 228.0 
201.310028 222.0 
203.050873 130.0 
205.048386 694.0 
207.064758 2898.0 
208.137177 144.0 
209.078552 233.0 
211.059204 476.0 
212.063354 131.0 
217.051147 117.0 
217.973282 122.0 
223.057785 119.0 
224.071167 130.0 
224.934479 133.0 
224.986359 106.0 
225.075882 7670.0 
225.375488 80.0 
226.08223 477.0 
227.089172 1086.0 
227.516663 167.0 
227.604736 86.0 
228.095657 83.0 
229.078598 627.0 
232.281296 88.0 
235.061172 737.0 
237.893219 218.0 
240.037338 194.0 
241.069168 648.0 
243.025986 81.0 
243.087723 8684.0 
244.092758 1112.0 
245.006805 255.0 
245.102966 16622.0 
245.573608 158.0 
245.963043 125.0 
246.060577 150.0 
246.103485 2370.0 
246.477524 235.0 
247.078278 391.0 
247.105591 268.0 
247.811066 252.0 
249.074844 161.0 
253.072647 1203.0 
254.312531 105.0 
256.106537 163.0 
257.125061 215.0 
257.808868 107.0 
259.095825 190.0 
259.75769 232.0 
260.263367 75.0 
260.409302 155.0 
260.617767 104.0 
261.040466 79.0 
261.098053 41686.0 
261.403259 84.0 
261.456635 132.0 
261.621582 79.0 
262.100708 3382.0 
262.582214 160.0 
262.852692 258.0 
263.112976 51857.0 
263.44873 183.0 
263.715637 248.0 
264.118561 5557.0 
265.026764 176.0 
265.117737 475.0 
266.06015 136.0 
266.389069 100.0 
267.088959 341.0 
267.439697 127.0 
268.094269 300.0 
269.10791 167.0 
271.053619 388.0 
271.081726 1089.0 
272.085083 317.0 
273.055542 170.0 
273.104919 338.0 
278.501251 184.0 
279.10788 470.0 
281.120911 125.0 
282.104614 186.0 
283.951294 94.0 
285.099335 1387.0 
286.086578 160.0 
288.115814 123.0 
289.093109 1024.0 
290.09729 362.0 
291.106262 241.0 
292.117126 262.0 
303.09848 546.0 
304.10788 121.0 
305.11908 304.0 
306.68985 252.0 
307.093262 280.0 
309.120941 276.0 
312.125641 170.0 
314.74707 113.0 
315.093262 315.0 
317.123688 130.0 
320.120514 112.0 
322.109283 137.0 
323.114166 532.0 
325.127686 176.0 
329.116425 139.0 
331.272552 151.0 
333.098236 534.0 
334.105194 363.0 
335.101288 124.0 
339.112061 178.0 
339.971222 316.0 
340.774323 133.0 
341.128357 252.0 
341.524445 139.0 
342.468628 168.0 
343.069489 172.0 
343.139374 21409.0 
343.306793 99.0 
343.705719 261.0 
344.144073 3234.0 
344.49292 123.0 
344.578979 298.0 
345.107727 142.0 
345.144684 443.0 
351.046356 128.0 
351.107208 1640.0 
352.106354 125.0 
353.1203 525.0 
353.718658 211.0 
354.132324 267.0 
358.78363 130.0 
359.137329 463.0 
360.143127 87.0 
360.184265 155.0 
360.271729 95.0 
360.979919 106.0 
361.027435 141.0 
361.15033 69911.0 
361.31424 118.0 
361.389435 200.0 
361.542206 175.0 
361.895844 198.0 
361.956299 64.0 
362.094788 215.0 
362.152832 7656.0 
362.293396 128.0 
362.549591 97.0 
363.155426 659.0 
364.44397 97.0 
364.646637 154.0 
364.821655 106.0 
364.880524 128.0 
369.116241 2091.0 
370.045013 90.0 
370.124451 312.0 
371.133606 1973.0 
372.132782 459.0 
377.138641 434.0 
378.154755 153.0 
383.120972 119.0 
385.112396 133.0 
385.146332 350.0 
386.157776 158.0 
387.130341 2664.0 
388.137421 707.0 
389.143921 1187.0 
393.942932 209.0 
394.617981 92.0 
398.550812 65.0 
401.147644 73.0 
401.762909 184.0 
403.561188 168.0 
405.142426 5073.0 
406.151459 886.0 
406.677948 84.0 
407.147949 949.0 
408.152557 605.0 
408.368195 272.0 
409.167633 343.0 
415.155182 163.0 
422.840851 146.0 
423.095856 190.0 
423.151581 5209.0 
424.153076 606.0 
425.158081 157.0 
426.163788 130.0 
431.161438 480.0 
441.179718 227.0 
441.28125 170.0 
449.075043 155.0 
449.145355 2393.0 
450.141815 113.0 
451.154449 292.0 
451.188446 328.0 
452.168549 107.0 
455.148499 143.0 
459.180206 155.0 
467.156555 4243.0 
468.069366 98.0 
468.127167 587.0 
469.167419 1718.0 
470.186798 211.0 
481.485016 126.0 
484.880005 151.0 
485.16687 4429.0 
485.745453 75.0 
486.177338 1126.0 
487.181458 2596.0 
487.700562 89.0 
488.118439 158.0 
488.179321 511.0 
489.190277 80.0 
498.569458 109.0 
501.152435 241.0 
501.209564 127.0 
503.175629 14546.0 
504.178284 1185.0 
505.081116 93.0 
505.127258 202.0 
505.191498 5892.0 
505.793304 265.0 
505.986176 139.0 
506.193695 578.0 
506.746033 118.0 
509.276642 185.0 
516.439514 150.0 
518.660461 121.0 
521.113708 237.0 
521.185242 7357.0 
522.194092 930.0 
523.203613 2374.0 
524.214722 969.0 
541.255493 136.0 
549.182861 151.0 
551.210327 199.0 
559.195801 83.0 
561.228027 325.0 
561.256287 363.0 
567.211243 284.0 
568.035461 188.0 
569.214355 111.0 
577.193726 93.0 
578.038147 116.0 
585.231567 144.0 
587.229004 130.0 
597.585449 287.0 
603.23053 11796.0 
604.238464 3358.0 
605.230103 218.0 
617.103577 100.0 
620.622864 95.0 
621.173523 203.0 
621.242737 3436.0 
622.248108 1013.0 
631.244019 178.0 
632.30957 108.0 
646.226929 181.0 
670.360229 224.0 
692.34198 182.0 
705.333984 99.0 
710.384277 131.0 
713.253723 131.0 
726.198303 94.0 
730.256653 106.0 
732.921997 122.0 
748.28717 239.0 
766.314087 208.0 
783.259705 130.0 
846.243286 144.0 
861.349854 135.0 
863.307434 699.0 
864.314941 151.0 
874.356079 210.0 
936.421936 144.0 
1229.34668 184.0 
1362.119385 138.0 
1423.122314 194.0 
1433.364014 320.0 
1474.303345 297.0 
1486.4729 261.0 
1572.710571 189.0 
1614.190186 388.0 
1688.631348 161.0 
1699.875366 272.0 
1710.07666 256.0 
1723.853027 328.0 
1785.618652 202.0 
1792.97583 488.0 
1820.68457 282.0 
1916.209351 211.0 
1917.649048 226.0 
1948.004028 265.0 
1986.19043 274.0 
END IONS

BEGIN IONS
TITLE=Scan Number: 438
PEPMASS=898.35498
CHARGE=1+
MSLEVEL=2
FILENAME=G10_GG10_01_2648.mzXML
INSTRUMENT=ion trap
SCANS=438
SMILES=OCCC(=C)C(=O)OCC1OCC(OC(=O)C(=C)CCO[C@@H]2O[C@H](COC(=O)C(=C)CCO[C@@H]3O[C@H](COC(=O)C(=C)CCO)[C@@H](O)[C@H](O)[C@H]3O)[C@@H](O)[C@H](O)[C@H]2O)C(O)C1O
INCHIKEY=AEUAVVIPDJTEFS-YJCYQKNWSA-N
75.042229 281.0 
78.007919 234.0 
78.418434 109.0 
79.333023 192.0 
81.03334 2402.0 
81.092682 118.0 
82.037178 216.0 
83.046837 478.0 
85.029327 2915.0 
85.501144 112.0 
86.026123 315.0 
86.237587 75.0 
86.622375 186.0 
87.04525 386.0 
88.291008 425.0 
91.039482 1407.0 
97.029503 2292.0 
98.027473 155.0 
98.4981 110.0 
98.549522 226.0 
98.687363 290.0 
98.806374 344.0 
98.937164 99.0 
99.009926 216.0 
99.044426 81285.0 
99.330627 91.0 
99.374527 133.0 
100.047836 2402.0 
100.192245 106.0 
100.758446 107.0 
101.025414 505.0 
101.055855 209.0 
102.064758 117.0 
103.037346 348.0 
108.042892 172.0 
108.455124 83.0 
109.028603 2552.0 
110.029839 317.0 
110.059219 138.0 
111.043518 2899.0 
112.044991 344.0 
115.038574 502.0 
117.055099 11239.0 
118.061615 209.0 
122.186516 115.0 
123.044731 167.0 
125.024551 163.0 
126.96611 202.0 
127.040161 4318.0 
128.04187 170.0 
129.054123 8329.0 
130.059448 527.0 
131.00563 178.0 
131.068558 188.0 
139.076385 78.0 
141.054672 144.0 
142.018478 225.0 
145.050293 4842.0 
146.968002 124.0 
147.065308 5271.0 
147.171768 143.0 
147.222458 100.0 
147.260941 184.0 
148.336807 88.0 
149.113907 95.0 
158.278778 107.0 
159.054413 286.0 
160.071182 230.0 
163.05896 143.0 
165.073746 5007.0 
165.205994 143.0 
166.078857 410.0 
167.062225 194.0 
167.53392 143.0 
167.549011 180.0 
169.052246 258.0 
171.063751 154.0 
172.074738 212.0 
173.011841 149.0 
173.041229 148.0 
177.056244 224.0 
179.312302 190.0 
181.048111 142.0 
183.088791 466.0 
188.420074 126.0 
189.079071 192.0 
191.072098 281.0 
193.0513 212.0 
199.059708 107.0 
200.304291 210.0 
202.010498 179.0 
205.049103 405.0 
207.066467 2351.0 
208.11113 300.0 
209.058685 323.0 
215.022964 381.0 
219.020676 212.0 
219.08905 170.0 
220.048279 152.0 
221.506577 88.0 
225.075882 2714.0 
227.090454 381.0 
229.052582 191.0 
230.064499 158.0 
233.040115 146.0 
235.069717 120.0 
241.073334 422.0 
242.057175 245.0 
242.875458 160.0 
243.087936 4159.0 
243.26268 203.0 
243.368668 227.0 
243.587265 396.0 
244.064011 250.0 
244.308884 156.0 
245.104233 7925.0 
246.101151 539.0 
247.081558 127.0 
253.071442 332.0 
255.042343 210.0 
255.689102 110.0 
261.038269 196.0 
261.097382 18848.0 
262.100616 1735.0 
263.024078 192.0 
263.071899 595.0 
263.11319 19328.0 
264.114868 978.0 
265.125031 117.0 
270.995941 347.0 
272.073914 424.0 
273.098907 252.0 
279.109741 176.0 
284.023956 166.0 
284.071808 233.0 
284.368896 143.0 
285.092072 128.0 
285.852448 112.0 
286.095978 150.0 
287.11322 178.0 
289.083008 193.0 
295.752625 91.0 
303.104706 320.0 
304.115448 206.0 
307.109406 204.0 
309.099396 129.0 
311.130951 133.0 
312.531494 256.0 
315.11145 170.0 
317.053802 163.0 
317.10965 121.0 
319.072205 175.0 
321.064209 265.0 
323.113098 624.0 
325.112457 148.0 
330.104095 484.0 
330.594269 291.0 
333.102081 126.0 
335.066254 2270.0 
336.070618 158.0 
339.118774 116.0 
341.129639 405.0 
343.05426 199.0 
343.141632 9860.0 
344.143402 1116.0 
344.383209 109.0 
345.148621 228.0 
347.663849 203.0 
351.106934 430.0 
353.064514 328.0 
353.112915 251.0 
353.486603 140.0 
358.081665 110.0 
359.059875 229.0 
359.938873 186.0 
360.767853 125.0 
361.150818 31173.0 
361.207123 173.0 
361.281097 422.0 
361.51944 86.0 
362.153168 4668.0 
363.04892 84.0 
363.153046 717.0 
364.579803 164.0 
369.116547 729.0 
371.13678 119.0 
378.146301 187.0 
383.128387 136.0 
384.596222 162.0 
385.068756 140.0 
385.135071 144.0 
387.129486 1301.0 
388.109924 125.0 
389.138428 367.0 
395.185425 170.0 
401.144012 146.0 
405.14151 1951.0 
406.140686 283.0 
407.160126 467.0 
408.153259 238.0 
408.259949 96.0 
415.09613 119.0 
415.175323 282.0 
423.148163 2447.0 
424.150421 258.0 
425.148224 131.0 
427.171387 185.0 
431.12851 447.0 
432.149689 313.0 
441.156036 125.0 
449.148285 905.0 
449.743408 161.0 
450.157806 380.0 
460.140472 4981.0 
460.650177 362.0 
461.137878 195.0 
463.121094 140.0 
464.488739 102.0 
467.150757 1700.0 
468.157379 430.0 
469.166046 1069.0 
470.170349 245.0 
472.019501 180.0 
481.125549 236.0 
483.195648 231.0 
484.937988 245.0 
485.167511 1786.0 
485.513824 163.0 
486.161407 324.0 
487.183624 1248.0 
498.800323 114.0 
503.019623 150.0 
503.17865 8006.0 
504.085114 107.0 
504.138123 271.0 
504.180176 1425.0 
505.191925 3408.0 
506.196991 999.0 
507.20575 116.0 
509.304962 94.0 
509.493866 200.0 
521.189941 7374.0 
521.297485 91.0 
522.196167 1104.0 
523.151489 173.0 
523.199036 1529.0 
524.19751 142.0 
524.470093 170.0 
528.4151 104.0 
545.034668 179.0 
556.252625 99.0 
567.212524 98.0 
585.149963 206.0 
598.261475 161.0 
602.329041 94.0 
603.076538 174.0 
603.232605 7860.0 
604.182068 159.0 
604.23291 1779.0 
605.24353 460.0 
607.774414 171.0 
615.423035 126.0 
620.026672 155.0 
621.038452 146.0 
621.094238 224.0 
621.13385 205.0 
621.243713 3911.0 
622.245483 630.0 
622.515991 134.0 
632.22522 127.0 
729.266174 120.0 
730.272827 95.0 
765.28186 448.0 
845.328979 115.0 
846.301514 105.0 
863.33136 485.0 
864.335083 282.0 
881.29541 119.0 
882.331299 162.0 
894.924377 93.0 
898.35907 554.0 
898.478027 93.0 
899.34906 134.0 
900.245911 254.0 
900.300781 1444.0 
900.81012 939.0 
901.253784 188.0 
903.303406 184.0 
1162.63147 136.0 
END IONS

BEGIN IONS
TITLE=Scan Number: 439
PEPMASS=991.599
CHARGE=1+
MSLEVEL=2
FILENAME=G10_GG10_01_2648.mzXML
INSTRUMENT=ion trap
SCANS=439
SMILES=CC(CCCCC(O)C(CO)C(O)=O)C\C(C)=C\C(C)=C\C(=O)OC(CCCCC(C)C\C(C)=C\C(C)=C\C(O)=O)C(CO)C(=O)OC(CCCCC(C)C\C(C)=C\C(C)=C\C(O)=O)C(CO)C(O)=O
INCHIKEY=PQTARGHEXNJCRK-MOHXMFTGSA-N
74.896927 297.0 
77.038132 111.0 
78.199532 194.0 
78.248009 203.0 
79.003098 335.0 
79.053642 3326.0 
80.058479 874.0 
80.111481 190.0 
80.243378 283.0 
80.501198 219.0 
81.033852 214.0 
81.070442 6393.0 
81.877716 150.0 
82.07325 220.0 
82.247795 100.0 
82.621414 86.0 
83.048439 1559.0 
83.085342 2325.0 
84.087448 188.0 
85.064789 1819.0 
85.65535 380.0 
86.031311 222.0 
86.334328 300.0 
87.044891 181.0 
87.148544 156.0 
88.564827 146.0 
88.892647 198.0 
89.588257 248.0 
90.09008 89.0 
90.451279 198.0 
90.892746 303.0 
91.02359 217.0 
91.055046 5457.0 
91.156555 106.0 
92.058174 590.0 
92.637589 315.0 
93.043915 218.0 
93.069901 8141.0 
93.182373 278.0 
94.078018 598.0 
94.209976 335.0 
95.049736 2869.0 
95.085602 11401.0 
96.089531 1229.0 
96.334419 236.0 
96.496758 88.0 
97.066101 1535.0 
97.102364 421.0 
97.482613 187.0 
98.070999 266.0 
98.483841 190.0 
99.044044 974.0 
99.201569 250.0 
100.339081 331.0 
101.059105 315.0 
103.05574 425.0 
103.336105 362.0 
105.047073 1352.0 
105.070892 8026.0 
106.016663 253.0 
106.072296 235.0 
107.047836 2317.0 
107.08609 21058.0 
107.13559 111.0 
108.055244 426.0 
108.088081 1349.0 
108.228775 352.0 
109.035934 219.0 
109.065041 19359.0 
109.102364 8272.0 
109.522331 104.0 
109.675941 89.0 
110.06958 2024.0 
110.10524 627.0 
110.845337 298.0 
110.995514 195.0 
111.02372 131.0 
111.043938 1129.0 
111.081558 9334.0 
111.115189 267.0 
111.288383 189.0 
111.754517 336.0 
113.024895 403.0 
113.095932 2125.0 
114.10276 221.0 
115.016853 273.0 
115.040154 3472.0 
115.189293 133.0 
115.392822 347.0 
115.715668 250.0 
116.043106 312.0 
116.060242 346.0 
116.108284 213.0 
117.070557 1565.0 
118.07328 148.0 
119.050987 801.0 
119.086731 8228.0 
120.090706 724.0 
120.238441 190.0 
120.567825 83.0 
120.718941 124.0 
120.956863 159.0 
121.008629 350.0 
121.031662 493.0 
121.064735 15285.0 
121.102013 26217.0 
121.296471 87.0 
121.317711 231.0 
121.797119 291.0 
121.829643 157.0 
122.068764 1346.0 
122.103706 1770.0 
122.232307 212.0 
122.827568 95.0 
122.861305 98.0 
122.945175 160.0 
123.046745 1132.0 
123.081154 41097.0 
123.117271 7094.0 
123.608551 109.0 
124.084 2569.0 
124.122055 621.0 
124.516441 272.0 
125.059875 4442.0 
125.097229 1998.0 
125.187637 104.0 
125.446945 180.0 
126.066383 541.0 
126.163338 87.0 
127.040779 456.0 
127.074501 3395.0 
127.115723 316.0 
128.038559 348.0 
128.062866 557.0 
128.44722 193.0 
129.06488 879.0 
129.089859 508.0 
129.788391 99.0 
130.076065 431.0 
131.03479 159.0 
131.086121 7991.0 
132.08989 738.0 
132.382309 189.0 
132.72525 125.0 
132.871872 212.0 
133.035767 185.0 
133.063492 682.0 
133.10202 40427.0 
133.324768 328.0 
133.547867 199.0 
133.760468 119.0 
134.069229 138.0 
134.104858 3377.0 
134.154617 97.0 
134.534683 98.0 
135.042587 399.0 
135.081146 12642.0 
135.117676 11244.0 
135.170303 100.0 
136.046371 153.0 
136.082626 537.0 
136.121353 1451.0 
137.033432 126.0 
137.059036 1239.0 
137.09726 5749.0 
137.132919 3989.0 
137.277542 161.0 
137.884567 97.0 
138.099396 446.0 
138.138199 332.0 
138.657593 186.0 
139.024826 136.0 
139.075729 1993.0 
139.112549 1191.0 
139.149033 292.0 
140.117661 292.0 
140.728806 253.0 
141.055191 2359.0 
141.08905 665.0 
141.945206 204.0 
142.062027 174.0 
142.094589 372.0 
142.272934 173.0 
142.979034 216.0 
143.086227 9819.0 
143.442719 149.0 
144.090225 1604.0 
144.745605 198.0 
144.920105 338.0 
145.066147 717.0 
145.101318 7181.0 
145.141754 118.0 
145.337448 226.0 
146.10791 687.0 
146.486237 126.0 
146.638397 240.0 
147.048355 551.0 
147.081497 12133.0 
147.117645 8281.0 
147.386932 112.0 
147.72139 107.0 
148.084595 637.0 
148.121216 175.0 
148.806396 143.0 
149.062744 1832.0 
149.09697 40643.0 
149.131927 5876.0 
149.1651 188.0 
149.898972 419.0 
150.061783 131.0 
150.100739 4723.0 
150.137817 417.0 
150.925644 85.0 
151.004959 199.0 
151.078766 2246.0 
151.113159 3868.0 
151.149887 486.0 
151.394608 231.0 
151.77211 390.0 
152.081039 371.0 
152.11618 546.0 
152.868515 84.0 
153.052307 514.0 
153.091232 1747.0 
153.129471 812.0 
153.193909 112.0 
154.095078 126.0 
155.085938 1542.0 
155.109726 516.0 
155.917206 219.0 
156.073685 241.0 
156.776428 360.0 
157.013428 147.0 
157.057541 442.0 
157.100464 5129.0 
157.213394 96.0 
158.106323 516.0 
158.939041 314.0 
159.081894 6288.0 
159.117737 7644.0 
159.190414 109.0 
159.869537 105.0 
160.085159 1392.0 
160.120697 1234.0 
160.466553 291.0 
160.751953 178.0 
161.037399 132.0 
161.068939 1297.0 
161.09729 51945.0 
161.132065 9146.0 
161.17305 181.0 
161.959793 115.0 
162.055771 338.0 
162.101837 6049.0 
162.14444 595.0 
162.333725 112.0 
162.867355 116.0 
163.055267 767.0 
163.072769 1206.0 
163.112305 7633.0 
163.148666 2430.0 
163.379807 220.0 
163.522537 139.0 
164.11824 480.0 
164.151611 114.0 
165.059204 523.0 
165.092438 2168.0 
165.130569 1427.0 
165.167068 850.0 
165.48822 234.0 
166.093826 161.0 
166.130966 336.0 
166.173294 252.0 
166.320496 443.0 
166.714371 135.0 
167.1073 8647.0 
167.14447 282.0 
167.357559 183.0 
167.475189 169.0 
168.029282 133.0 
168.107101 793.0 
169.012665 317.0 
169.105148 2108.0 
170.107559 796.0 
170.625229 362.0 
170.798508 122.0 
171.074417 547.0 
171.118423 2689.0 
172.084305 223.0 
172.122452 467.0 
172.190231 297.0 
172.3069 189.0 
172.496536 266.0 
173.096832 7797.0 
173.132248 4016.0 
173.484375 174.0 
174.100327 1475.0 
174.134827 1170.0 
174.559799 209.0 
174.639359 92.0 
174.732376 128.0 
174.90567 189.0 
174.965118 95.0 
175.112396 22921.0 
175.148376 2992.0 
175.240372 85.0 
176.117706 1148.0 
176.152573 595.0 
176.392227 158.0 
177.07164 194.0 
177.09314 1441.0 
177.128418 6830.0 
177.16629 1250.0 
177.373306 110.0 
177.599503 105.0 
177.763794 93.0 
178.094528 196.0 
178.129364 535.0 
178.163528 250.0 
179.071976 332.0 
179.108765 8525.0 
179.145691 267.0 
180.111328 679.0 
181.070465 190.0 
181.093246 960.0 
181.123489 1834.0 
181.251022 255.0 
181.339798 124.0 
182.084885 162.0 
182.476288 96.0 
183.06456 335.0 
183.118134 3152.0 
184.074356 194.0 
184.122803 516.0 
185.119003 11397.0 
185.361694 96.0 
185.446365 78.0 
185.468536 164.0 
186.122498 1034.0 
186.421341 99.0 
187.00618 93.0 
187.075867 220.0 
187.112503 4965.0 
187.148514 2073.0 
187.622375 140.0 
188.099274 879.0 
188.499252 167.0 
189.051605 184.0 
189.091095 1709.0 
189.129669 3479.0 
189.162064 1726.0 
190.112091 722.0 
190.133759 804.0 
190.167892 491.0 
191.107925 1350.0 
191.144257 924.0 
191.179153 945.0 
192.150299 444.0 
193.091858 1087.0 
193.121994 1124.0 
193.157959 447.0 
194.09465 393.0 
194.164978 106.0 
195.11647 1155.0 
195.141083 701.0 
196.10498 395.0 
196.124802 1191.0 
197.073502 369.0 
197.132278 1855.0 
198.019119 201.0 
198.104126 716.0 
198.136459 350.0 
199.114929 2131.0 
199.149124 5394.0 
199.49823 223.0 
199.759216 241.0 
200.114975 260.0 
200.153412 1123.0 
201.096802 925.0 
201.129227 3984.0 
201.165466 3316.0 
202.053345 144.0 
202.133194 1099.0 
203.070618 158.0 
203.103058 731.0 
203.145157 1888.0 
203.180267 1458.0 
203.417084 276.0 
203.820999 92.0 
204.114761 268.0 
204.152924 416.0 
204.183258 924.0 
204.932831 196.0 
205.118805 1032.0 
205.193329 446.0 
206.110458 271.0 
206.16127 122.0 
207.100281 170.0 
207.140015 2271.0 
207.177246 454.0 
209.127121 1269.0 
210.140762 988.0 
210.587921 288.0 
211.075485 241.0 
211.112442 3128.0 
211.15065 2709.0 
212.081757 161.0 
212.118729 1229.0 
212.149689 393.0 
213.089172 128.0 
213.128403 2628.0 
213.1651 2084.0 
214.053696 227.0 
214.135315 769.0 
214.177292 354.0 
214.603088 79.0 
215.039078 220.0 
215.06311 414.0 
215.110077 1566.0 
215.146332 2378.0 
215.180756 4927.0 
215.214203 340.0 
215.428436 229.0 
216.110855 494.0 
216.18367 1563.0 
217.098145 85.0 
217.123672 285.0 
217.160751 7176.0 
217.196808 2526.0 
217.237732 90.0 
217.699646 216.0 
217.920486 176.0 
218.096909 199.0 
218.130219 212.0 
218.16983 229.0 
218.198929 293.0 
219.13913 687.0 
219.170853 154.0 
219.210815 386.0 
220.132187 467.0 
221.099655 173.0 
221.157898 294.0 
222.136673 270.0 
222.161667 206.0 
223.063934 149.0 
223.102783 349.0 
223.124344 411.0 
223.149445 942.0 
224.120438 746.0 
225.105423 261.0 
225.130966 1251.0 
225.163025 6463.0 
225.977798 193.0 
226.131546 398.0 
226.170807 927.0 
226.244644 188.0 
227.076385 209.0 
227.142929 1434.0 
227.180298 2018.0 
228.109756 271.0 
229.12558 1584.0 
229.16124 2758.0 
229.329971 268.0 
229.653931 143.0 
230.135361 341.0 
230.166138 974.0 
231.147888 351.0 
231.176453 1056.0 
231.213104 254.0 
232.181763 168.0 
233.116608 343.0 
233.154449 327.0 
233.192047 1236.0 
233.256256 90.0 
235.171539 6961.0 
236.172745 1482.0 
237.121964 265.0 
237.166046 775.0 
238.136765 696.0 
239.146942 251.0 
239.183426 173.0 
240.068726 138.0 
241.125351 476.0 
241.159683 4841.0 
241.707932 132.0 
242.162292 958.0 
242.362656 310.0 
242.653183 108.0 
243.176437 15516.0 
243.219131 268.0 
243.327148 107.0 
244.133759 137.0 
244.18219 1178.0 
245.114105 201.0 
245.150085 173.0 
245.191818 3484.0 
245.63855 260.0 
246.025269 170.0 
246.194489 1015.0 
247.132858 183.0 
247.169617 1690.0 
248.9897 85.0 
249.13092 129.0 
249.181107 1347.0 
250.194061 154.0 
251.142609 355.0 
252.766113 120.0 
252.923538 168.0 
253.16069 18930.0 
253.442612 134.0 
253.52774 119.0 
253.827591 86.0 
254.166412 3176.0 
254.255539 126.0 
254.543518 178.0 
255.143936 174.0 
255.181458 485.0 
256.026398 94.0 
256.048828 149.0 
257.166718 492.0 
257.959045 315.0 
259.089386 157.0 
259.170258 6386.0 
259.637299 86.0 
260.176575 1312.0 
261.107025 199.0 
261.186401 8446.0 
261.29306 108.0 
261.503632 305.0 
261.7659 263.0 
261.878113 186.0 
262.155945 357.0 
262.184692 838.0 
263.141571 319.0 
263.162872 342.0 
263.205017 1852.0 
264.166718 200.0 
264.208862 338.0 
264.87796 206.0 
265.175262 787.0 
266.184906 229.0 
267.204926 203.0 
268.153992 313.0 
268.223297 350.0 
269.156616 933.0 
269.771118 130.0 
270.075775 221.0 
270.125183 115.0 
270.438934 110.0 
270.569305 117.0 
270.802399 197.0 
270.867676 88.0 
271.020111 152.0 
271.171509 55929.0 
271.264801 168.0 
271.322144 101.0 
271.678131 173.0 
271.708008 151.0 
272.175446 8625.0 
272.565887 220.0 
272.926147 87.0 
273.113464 364.0 
273.183716 1369.0 
274.1716 343.0 
275.154022 179.0 
275.180481 313.0 
277.18277 4483.0 
278.597015 211.0 
279.083923 89.0 
279.151459 257.0 
279.196167 1346.0 
280.200348 643.0 
280.27475 79.0 
280.975098 93.0 
281.152496 351.0 
281.211456 390.0 
282.035553 114.0 
283.176697 175.0 
283.211029 160.0 
284.174866 153.0 
285.071808 192.0 
285.183136 231.0 
286.910492 114.0 
287.166992 1146.0 
288.170349 704.0 
288.249359 168.0 
289.181458 68194.0 
289.253082 202.0 
289.546631 211.0 
289.651306 152.0 
290.068634 239.0 
290.114227 106.0 
290.185303 9886.0 
290.471405 92.0 
291.192169 3072.0 
292.05777 121.0 
292.199341 211.0 
292.236847 121.0 
292.366882 114.0 
292.976196 95.0 
293.143829 120.0 
294.223389 184.0 
295.189606 367.0 
296.209747 360.0 
297.15625 160.0 
297.204865 200.0 
298.200714 227.0 
299.161926 166.0 
301.180847 215.0 
305.176361 1991.0 
305.275452 225.0 
305.555664 106.0 
306.167755 270.0 
306.542633 99.0 
306.650696 144.0 
307.053406 369.0 
307.19223 63726.0 
307.444641 113.0 
307.61026 127.0 
307.792969 160.0 
308.19339 8003.0 
308.297272 165.0 
308.541962 109.0 
308.791351 120.0 
309.204834 1185.0 
310.056793 142.0 
310.166382 112.0 
310.207764 513.0 
310.342896 178.0 
311.206177 99.0 
312.717468 73.0 
314.225525 197.0 
315.162384 1136.0 
315.228088 184.0 
316.18454 206.0 
319.536957 153.0 
319.7901 122.0 
321.175323 326.0 
322.19162 107.0 
323.188782 260.0 
323.284668 117.0 
324.0495 139.0 
324.149078 107.0 
324.191071 138.0 
325.107208 91.0 
325.201508 20648.0 
326.140778 99.0 
326.205414 4276.0 
327.203217 302.0 
328.233032 141.0 
328.372986 109.0 
328.604767 96.0 
331.209412 283.0 
332.221344 205.0 
333.175507 521.0 
333.201324 578.0 
333.406403 133.0 
334.17868 336.0 
335.171387 132.0 
335.224792 288.0 
337.222443 290.0 
340.204498 150.0 
341.182434 376.0 
343.125854 161.0 
343.213928 4899.0 
344.216766 433.0 
345.226105 121.0 
347.203339 387.0 
348.316772 204.0 
349.16629 293.0 
349.207886 125.0 
352.233002 173.0 
353.242493 150.0 
354.264313 129.0 
355.192932 117.0 
355.490875 148.0 
356.236786 206.0 
357.202942 286.0 
359.223602 197.0 
359.932556 253.0 
360.214417 163.0 
360.827515 194.0 
361.014923 123.0 
361.203308 5775.0 
362.208435 836.0 
363.238007 114.0 
364.268066 101.0 
366.421509 279.0 
367.200897 178.0 
368.266571 173.0 
369.19754 149.0 
370.24942 115.0 
371.231781 201.0 
373.217682 310.0 
373.288116 172.0 
374.268616 201.0 
375.224579 388.0 
375.954254 127.0 
376.227448 190.0 
377.181824 112.0 
377.210907 363.0 
378.279602 136.0 
378.808929 191.0 
379.213654 6630.0 
380.213745 1300.0 
381.215546 164.0 
381.250702 264.0 
382.261688 164.0 
383.22818 322.0 
383.2742 187.0 
383.524628 147.0 
384.2565 144.0 
385.263397 150.0 
385.298218 219.0 
387.215118 161.0 
388.227203 213.0 
389.245544 145.0 
390.254395 276.0 
391.298523 159.0 
393.244049 302.0 
394.249573 148.0 
397.220551 251.0 
399.279327 136.0 
401.25708 121.0 
403.253906 265.0 
404.221497 102.0 
404.29715 281.0 
405.276428 411.0 
407.24707 287.0 
408.25415 115.0 
408.280304 179.0 
413.238251 945.0 
414.668884 240.0 
415.24472 782.0 
417.287506 140.0 
418.255737 187.0 
419.253723 485.0 
419.463196 88.0 
421.249237 390.0 
423.276489 97.0 
427.232819 123.0 
427.285309 157.0 
429.266357 915.0 
430.274597 196.0 
431.233612 165.0 
435.295441 161.0 
437.268433 306.0 
446.321106 254.0 
447.257324 260.0 
448.353363 182.0 
451.276337 300.0 
453.298615 127.0 
454.271942 170.0 
455.278412 971.0 
456.289612 127.0 
460.160309 229.0 
462.291229 132.0 
465.24527 136.0 
466.238953 80.0 
467.290527 418.0 
468.461578 288.0 
469.155701 97.0 
469.288391 130.0 
469.345398 171.0 
470.238403 178.0 
471.322083 284.0 
472.278595 173.0 
472.33609 279.0 
473.286011 501.0 
474.288422 339.0 
476.255676 144.0 
479.332123 167.0 
480.551514 189.0 
481.257263 148.0 
481.368683 96.0 
485.338074 235.0 
487.302551 180.0 
489.290283 261.0 
491.290558 370.0 
493.292236 285.0 
495.312836 234.0 
498.334686 179.0 
499.30719 261.0 
500.305298 225.0 
503.358093 196.0 
505.333099 389.0 
507.289886 206.0 
507.340332 263.0 
507.37854 232.0 
511.375885 158.0 
513.340332 611.0 
514.345093 146.0 
515.355469 632.0 
517.337463 202.0 
520.367615 137.0 
521.299561 185.0 
521.371399 381.0 
521.588196 109.0 
522.348938 184.0 
523.321167 610.0 
524.317993 113.0 
525.354248 385.0 
529.325195 270.0 
530.259644 166.0 
531.341492 426.0 
533.367432 836.0 
534.356812 246.0 
535.345398 478.0 
536.353394 137.0 
537.226746 107.0 
538.363647 93.0 
539.392639 176.0 
541.34082 1488.0 
542.344238 271.0 
542.460449 133.0 
543.419434 144.0 
547.335144 441.0 
548.346802 210.0 
549.359253 737.0 
550.357971 214.0 
551.322876 239.0 
551.374084 1257.0 
552.367371 588.0 
553.379456 425.0 
554.395325 421.0 
559.258789 246.0 
559.341553 3146.0 
559.702026 134.0 
560.293213 175.0 
560.356079 936.0 
561.340088 272.0 
565.352051 1059.0 
566.902527 87.0 
567.359497 330.0 
567.384094 342.0 
568.37677 616.0 
569.049561 99.0 
569.391724 1896.0 
570.35083 334.0 
570.388733 457.0 
571.379578 118.0 
572.3703 162.0 
576.339478 147.0 
577.284851 281.0 
577.356079 6132.0 
578.359131 2046.0 
578.7547 141.0 
579.368774 1269.0 
581.337708 201.0 
583.316284 89.0 
583.369568 1024.0 
584.367615 1012.0 
585.38092 344.0 
586.657959 282.0 
587.398621 1229.0 
588.078857 170.0 
588.74646 173.0 
589.379822 127.0 
589.49353 160.0 
590.116394 146.0 
591.231934 128.0 
591.755066 318.0 
593.367676 162.0 
593.654724 181.0 
594.344055 215.0 
594.993286 121.0 
595.223328 289.0 
595.266174 526.0 
595.366943 15986.0 
595.552307 171.0 
596.241699 95.0 
596.295898 295.0 
596.37146 4428.0 
596.569275 163.0 
597.37262 2037.0 
598.376892 409.0 
601.388062 952.0 
602.371582 625.0 
603.328979 133.0 
605.404236 491.0 
606.414551 244.0 
607.534241 281.0 
609.91571 136.0 
610.114136 85.0 
610.549622 179.0 
610.788635 154.0 
611.035156 243.0 
611.396179 476.0 
612.154602 96.0 
612.370544 1085.0 
613.039673 224.0 
613.175598 489.0 
613.275757 1217.0 
613.378113 47043.0 
613.466492 189.0 
613.772644 133.0 
613.962219 171.0 
614.379272 13270.0 
614.458252 183.0 
614.641479 104.0 
614.773926 89.0 
615.275024 262.0 
615.387695 2852.0 
616.387512 551.0 
617.754517 108.0 
623.337219 90.0 
628.404724 160.0 
628.461426 87.0 
628.752258 116.0 
628.953735 175.0 
629.219238 204.0 
629.365784 659.0 
630.227905 145.0 
630.354065 821.0 
631.106934 127.0 
631.388184 39538.0 
632.027588 129.0 
632.116516 120.0 
632.265381 178.0 
632.394104 15134.0 
632.666016 172.0 
632.931335 118.0 
633.389526 2407.0 
633.8573 108.0 
633.897278 118.0 
634.150269 159.0 
634.236572 112.0 
637.357788 170.0 
638.278137 149.0 
641.402771 139.0 
646.415588 111.0 
649.394226 1426.0 
650.406921 873.0 
665.417419 151.0 
666.371704 197.0 
667.363037 162.0 
668.366638 218.0 
685.396606 665.0 
686.405579 229.0 
687.390015 126.0 
689.138062 165.0 
704.674316 104.0 
705.210632 140.0 
717.47345 143.0 
718.446411 103.0 
722.416626 91.0 
726.448242 195.0 
729.47168 234.0 
736.495605 133.0 
737.477661 155.0 
738.448853 255.0 
743.453918 400.0 
779.47998 415.0 
781.365234 157.0 
785.510864 129.0 
797.487854 320.0 
809.53949 90.0 
814.512268 176.0 
829.52533 161.0 
836.518982 152.0 
837.497131 102.0 
839.515259 88.0 
841.545593 198.0 
847.535339 237.0 
848.531616 147.0 
849.576782 101.0 
853.509705 160.0 
858.395569 112.0 
858.565979 166.0 
860.795776 106.0 
862.664429 95.0 
864.830933 136.0 
865.530945 727.0 
866.529419 411.0 
872.54718 126.0 
875.415588 151.0 
875.486938 159.0 
875.559937 506.0 
876.573669 227.0 
877.584229 261.0 
881.544312 179.0 
882.424927 178.0 
883.437195 99.0 
883.541138 1114.0 
884.544373 746.0 
885.559021 951.0 
886.265137 101.0 
886.564026 95.0 
889.552612 1201.0 
890.540649 492.0 
893.560669 243.0 
894.588501 231.0 
895.576111 442.0 
901.393494 109.0 
901.550598 4889.0 
901.639038 133.0 
902.466553 391.0 
902.549377 1668.0 
903.56189 2857.0 
903.775879 149.0 
904.518616 113.0 
904.567627 139.0 
905.620728 95.0 
906.806763 140.0 
907.555908 797.0 
908.437073 139.0 
908.598389 352.0 
909.602173 240.0 
911.551697 346.0 
915.104065 72.0 
917.53302 121.0 
918.547852 347.0 
919.553406 8677.0 
919.874817 130.0 
920.564331 4286.0 
921.565063 3366.0 
922.578003 460.0 
924.692749 166.0 
925.570374 352.0 
926.947205 139.0 
927.233582 129.0 
927.554626 109.0 
934.593567 80.0 
935.274658 171.0 
935.386536 140.0 
936.408386 146.0 
936.559082 696.0 
937.264893 179.0 
937.316956 168.0 
937.376526 184.0 
937.472717 1066.0 
937.566162 22921.0 
937.947449 189.0 
938.444336 260.0 
938.570923 9577.0 
939.039001 91.0 
939.256897 165.0 
939.373413 92.0 
939.468079 269.0 
939.586914 5222.0 
939.925293 99.0 
940.088257 105.0 
940.166138 118.0 
940.572937 94.0 
940.621399 137.0 
941.171631 103.0 
947.214539 147.0 
949.39386 123.0 
950.896851 70.0 
954.486633 127.0 
954.563904 908.0 
954.87085 112.0 
955.207336 176.0 
955.396301 425.0 
955.578796 30100.0 
955.799438 181.0 
956.383728 217.0 
956.45813 681.0 
956.586182 14098.0 
957.429626 113.0 
957.581909 4032.0 
957.984131 199.0 
958.60437 106.0 
959.152344 109.0 
961.120056 189.0 
961.23468 112.0 
973.565613 956.0 
974.577209 539.0 
975.453186 215.0 
975.601746 180.0 
975.645447 207.0 
990.61377 116.0 
994.094543 273.0 
1295.86377 200.0 
1325.320312 103.0 
1348.930542 204.0 
1389.20166 202.0 
1392.591919 83.0 
1408.082764 160.0 
1412.889526 175.0 
1451.644897 142.0 
1473.772705 98.0 
1476.892944 152.0 
1496.42334 112.0 
1522.915405 85.0 
1528.102661 222.0 
1533.441406 89.0 
1536.770874 108.0 
1537.409424 213.0 
1555.968384 129.0 
1561.871948 255.0 
1566.127075 226.0 
1570.927734 131.0 
1580.287354 101.0 
1587.037842 215.0 
1622.835449 307.0 
1687.414917 263.0 
1687.984863 346.0 
1692.949341 217.0 
1695.446289 152.0 
1707.400269 119.0 
1713.091675 102.0 
1714.264648 151.0 
1780.551392 148.0 
1785.323242 250.0 
1868.848022 175.0 
1943.084473 342.0 
END IONS

BEGIN IONS
TITLE=Scan Number: 440
PEPMASS=1008.63
CHARGE=1+
MSLEVEL=2
FILENAME=G10_GG10_01_2648.mzXML
INSTRUMENT=ion trap
SCANS=440
SMILES=CC(CCCCC(O)C(CO)C(O)=O)C\C(C)=C\C(C)=C\C(=O)OC(CCCCC(C)C\C(C)=C\C(C)=C\C(O)=O)C(CO)C(=O)OC(CCCCC(C)C\C(C)=C\C(C)=C\C(O)=O)C(CO)C(O)=O
INCHIKEY=PQTARGHEXNJCRK-MOHXMFTGSA-N
79.051414 890.0 
81.057617 575.0 
81.07193 383.0 
83.086853 1041.0 
85.029587 511.0 
85.063484 299.0 
91.041611 231.0 
92.051361 189.0 
93.069382 1438.0 
95.086601 2432.0 
96.088257 203.0 
97.098083 164.0 
99.551987 267.0 
105.046844 249.0 
105.068687 1352.0 
107.050339 351.0 
107.084915 4105.0 
107.16304 229.0 
108.074684 171.0 
108.092171 170.0 
108.663719 256.0 
109.044868 305.0 
109.065887 3571.0 
109.101562 2370.0 
110.072327 507.0 
111.081192 1688.0 
111.115326 205.0 
113.097809 578.0 
115.039406 757.0 
116.058769 194.0 
116.465073 206.0 
119.085518 1410.0 
119.128387 129.0 
120.090927 637.0 
121.04052 221.0 
121.064583 1357.0 
121.101631 6942.0 
122.107124 504.0 
122.589424 168.0 
123.080315 6152.0 
123.116028 1070.0 
124.085205 551.0 
125.060822 562.0 
125.093277 87.0 
125.170692 116.0 
127.07917 355.0 
128.066055 220.0 
129.07579 395.0 
130.075195 424.0 
131.086761 1980.0 
132.996841 123.0 
133.061462 440.0 
133.101074 8254.0 
133.896896 259.0 
134.101379 1103.0 
134.929993 143.0 
135.044846 286.0 
135.08107 1922.0 
135.117279 2220.0 
136.082184 408.0 
137.057831 138.0 
137.097427 723.0 
137.13237 556.0 
137.595535 241.0 
138.104263 198.0 
139.069824 142.0 
139.108765 412.0 
141.056824 1247.0 
141.181534 218.0 
142.060959 172.0 
143.086441 1525.0 
144.090012 500.0 
144.677414 145.0 
145.100143 1374.0 
147.080856 2049.0 
147.115021 1684.0 
147.333374 105.0 
148.122375 572.0 
149.063324 350.0 
149.09668 7207.0 
149.134781 366.0 
150.101898 1235.0 
150.138275 203.0 
151.078262 268.0 
151.112305 621.0 
151.151077 285.0 
153.093063 613.0 
153.122711 183.0 
155.066223 86.0 
155.089508 235.0 
157.099243 826.0 
159.078064 727.0 
159.117569 2451.0 
160.087387 322.0 
160.122681 160.0 
161.096497 9545.0 
161.129929 1548.0 
162.104202 1181.0 
162.133804 382.0 
163.076965 175.0 
163.112076 1568.0 
163.147202 619.0 
163.353073 254.0 
164.115677 230.0 
164.827652 120.0 
165.090256 454.0 
165.130371 585.0 
167.055298 182.0 
167.109558 1352.0 
167.669937 351.0 
167.712082 130.0 
170.111176 331.0 
171.117523 385.0 
173.096039 1014.0 
173.130981 403.0 
175.074478 130.0 
175.112366 4175.0 
175.14621 806.0 
176.123978 336.0 
176.305237 116.0 
177.094711 858.0 
177.129303 1383.0 
177.283951 101.0 
177.456711 134.0 
178.126419 146.0 
179.065857 194.0 
179.1064 570.0 
179.14389 352.0 
180.111694 143.0 
183.072723 297.0 
183.119171 996.0 
183.179474 141.0 
185.096405 595.0 
185.127838 812.0 
186.139191 170.0 
187.073944 152.0 
187.111877 1603.0 
187.140884 281.0 
189.08699 302.0 
189.130219 1007.0 
189.164688 527.0 
190.131638 178.0 
190.168381 401.0 
193.104248 309.0 
193.16153 135.0 
193.525711 218.0 
195.083145 199.0 
195.108582 337.0 
195.139389 388.0 
197.093674 396.0 
197.122604 270.0 
197.514267 314.0 
198.107162 137.0 
199.113464 201.0 
199.147949 1179.0 
199.896973 160.0 
200.081833 153.0 
200.142075 144.0 
201.088562 360.0 
201.128891 754.0 
201.165237 790.0 
203.014297 179.0 
203.091629 158.0 
203.175537 307.0 
205.086548 182.0 
205.119461 239.0 
206.127701 151.0 
207.103943 278.0 
207.139847 175.0 
207.545929 272.0 
208.12413 178.0 
209.113068 401.0 
210.11795 157.0 
211.109985 1174.0 
211.151062 402.0 
212.150818 210.0 
213.129547 522.0 
213.165985 325.0 
213.507828 119.0 
215.136261 261.0 
215.17981 1002.0 
215.882263 112.0 
217.126068 180.0 
217.163116 222.0 
217.200012 871.0 
221.164764 217.0 
223.145538 340.0 
224.985641 189.0 
225.089737 160.0 
225.166824 1744.0 
226.172134 114.0 
226.214859 112.0 
227.179123 476.0 
228.187302 133.0 
229.129501 349.0 
229.158539 1432.0 
230.154251 165.0 
231.182693 375.0 
231.518234 130.0 
233.132553 146.0 
233.186447 138.0 
235.16803 1334.0 
235.213898 195.0 
236.153366 148.0 
239.176971 178.0 
241.159485 1409.0 
242.165497 103.0 
243.177841 1994.0 
244.107803 184.0 
244.174088 660.0 
245.018433 129.0 
245.134262 190.0 
245.189545 820.0 
246.128342 109.0 
246.196228 170.0 
247.168884 301.0 
249.185211 243.0 
250.191666 147.0 
251.028458 201.0 
253.068665 160.0 
253.111298 402.0 
253.160141 3010.0 
253.970001 200.0 
254.163727 390.0 
255.138733 218.0 
258.160889 250.0 
259.169373 878.0 
260.17514 748.0 
261.190613 1474.0 
262.192871 188.0 
263.125885 174.0 
263.197296 480.0 
265.095276 224.0 
265.14212 173.0 
269.118042 184.0 
269.156433 162.0 
269.885498 179.0 
270.766754 145.0 
271.104797 383.0 
271.171173 10421.0 
271.294769 139.0 
272.024567 130.0 
272.173096 992.0 
273.06485 202.0 
273.531189 105.0 
273.937714 144.0 
277.179321 949.0 
278.186859 247.0 
279.188354 334.0 
279.503571 254.0 
281.181702 115.0 
283.210297 137.0 
285.189209 185.0 
287.630859 205.0 
288.166748 354.0 
289.181122 16888.0 
289.763245 87.0 
290.1875 1283.0 
291.121979 127.0 
291.197388 185.0 
292.175812 417.0 
292.402496 121.0 
297.132263 612.0 
297.19104 287.0 
303.196503 288.0 
303.51593 167.0 
305.180542 588.0 
307.091522 150.0 
307.192352 11656.0 
308.19455 2071.0 
309.12265 160.0 
309.194275 318.0 
309.377686 101.0 
315.199402 191.0 
316.158844 167.0 
317.140289 220.0 
317.222046 312.0 
319.226746 150.0 
323.31131 121.0 
323.416809 87.0 
325.203613 4021.0 
326.170868 410.0 
326.203918 1039.0 
327.14978 763.0 
329.154266 144.0 
330.179749 153.0 
333.04538 193.0 
333.166809 156.0 
338.199432 190.0 
342.837799 174.0 
343.213074 617.0 
344.218262 331.0 
349.221222 155.0 
350.169098 257.0 
351.132446 340.0 
352.164551 193.0 
356.176483 125.0 
360.049164 83.0 
361.204773 582.0 
362.199402 111.0 
364.160217 139.0 
365.192352 137.0 
369.125183 278.0 
369.163239 809.0 
370.156158 150.0 
371.173859 391.0 
377.21521 158.0 
379.178772 185.0 
379.211029 407.0 
380.219147 153.0 
381.163757 397.0 
385.138031 252.0 
385.237061 171.0 
387.189392 98.0 
395.246796 164.0 
399.156891 137.0 
400.485931 323.0 
403.262238 143.0 
427.274261 185.0 
428.593658 233.0 
437.271057 372.0 
442.281219 148.0 
445.262268 232.0 
447.255157 188.0 
451.318268 179.0 
455.277008 350.0 
456.284485 164.0 
470.295288 174.0 
474.276703 113.0 
477.281586 159.0 
487.306458 150.0 
487.349609 125.0 
491.303406 121.0 
495.310089 139.0 
503.193115 160.0 
505.341278 365.0 
509.329956 172.0 
513.284668 209.0 
516.352539 186.0 
518.338074 140.0 
519.726074 217.0 
533.357361 171.0 
536.341125 187.0 
541.316467 157.0 
548.356567 110.0 
549.361938 163.0 
551.378174 510.0 
552.389771 112.0 
559.356201 525.0 
560.353638 339.0 
565.356873 194.0 
567.286011 150.0 
567.372192 185.0 
569.387207 388.0 
571.34082 404.0 
576.333191 164.0 
577.358521 1154.0 
578.351135 480.0 
578.818726 101.0 
579.363953 139.0 
581.308838 120.0 
583.314941 182.0 
583.366211 457.0 
584.300842 119.0 
585.32782 296.0 
586.315063 300.0 
593.334473 134.0 
595.120483 124.0 
595.255981 104.0 
595.367554 5084.0 
596.376831 1291.0 
597.379395 252.0 
601.353699 296.0 
602.385254 305.0 
607.410706 235.0 
611.230835 264.0 
612.444336 173.0 
612.7229 233.0 
613.37677 11410.0 
614.379456 4477.0 
615.384888 1106.0 
616.358948 97.0 
628.319641 175.0 
629.373596 91.0 
629.81543 104.0 
629.931702 132.0 
630.390625 244.0 
631.252808 268.0 
631.388306 10906.0 
632.394226 2730.0 
633.392761 765.0 
633.652466 186.0 
649.398438 261.0 
651.289551 151.0 
651.366516 242.0 
653.424561 216.0 
668.388489 238.0 
675.366333 177.0 
678.42572 194.0 
686.423767 147.0 
692.943542 189.0 
705.356934 152.0 
707.425964 101.0 
708.362061 142.0 
736.407471 203.0 
741.084106 104.0 
845.540039 132.0 
855.557495 92.0 
857.573425 234.0 
859.617249 199.0 
866.518799 215.0 
875.56897 115.0 
876.579895 138.0 
883.55603 130.0 
885.548645 180.0 
893.574463 115.0 
895.539673 153.0 
902.562622 516.0 
903.565613 572.0 
907.564453 180.0 
909.280701 103.0 
911.591064 352.0 
912.595215 126.0 
913.59198 141.0 
918.547058 121.0 
919.56781 1959.0 
920.492126 245.0 
920.565125 1679.0 
921.574097 764.0 
925.578613 238.0 
925.652283 143.0 
935.544189 137.0 
936.551819 355.0 
937.419312 323.0 
937.562012 4856.0 
938.182617 94.0 
938.580688 2421.0 
939.502075 116.0 
939.588257 1068.0 
940.585876 368.0 
941.580688 162.0 
942.59082 149.0 
948.992981 156.0 
953.546875 143.0 
954.554932 174.0 
954.625977 237.0 
955.573303 11490.0 
956.390747 131.0 
956.586365 5177.0 
957.4375 156.0 
957.57489 1882.0 
957.75 170.0 
958.59436 250.0 
958.880981 95.0 
972.651917 115.0 
973.595459 274.0 
974.43396 154.0 
974.59668 234.0 
987.563477 177.0 
1011.518005 74.0 
1026.896729 93.0 
1027.541992 188.0 
1027.977783 253.0 
1028.524292 228.0 
1028.784302 162.0 
1028.849609 86.0 
1029.542725 1276.0 
1029.943848 91.0 
1030.548584 510.0 
1031.558472 142.0 
1371.546875 114.0 
1418.077271 285.0 
1449.228394 274.0 
1523.559204 232.0 
1533.425171 295.0 
1557.604248 290.0 
1849.905396 227.0 
1875.750977 160.0 
END IONS

BEGIN IONS
TITLE=Scan Number: 441
PEPMASS=187.039
CHARGE=1+
MSLEVEL=2
FILENAME=A4_GA4_01_2684.mzXML
INSTRUMENT=ion trap
SCANS=441
SMILES=O=C1OC2=CC3=C(C=CO3)C=C2C=C1
INCHIKEY=ZCCUUQDIBDJBTK-UHFFFAOYSA-N
73.678009 228.0 
77.03598 956.0 
89.042992 524.0 
90.025978 190.0 
95.049797 1302.0 
102.046021 424.0 
103.053062 1582.0 
105.044983 3741.0 
113.038521 140.0 
114.0345 247.0 
115.054413 5016.0 
130.309814 141.0 
131.049438 23549.0 
131.632736 191.0 
132.051682 1378.0 
133.02356 142.0 
133.137299 129.0 
133.239532 182.0 
143.049057 4465.0 
147.958923 76.0 
156.92244 234.0 
159.044708 1485.0 
177.054321 180.0 
187.039215 19525.0 
188.042709 567.0 
189.466934 106.0 
189.528961 106.0 
1022.370728 140.0 
1769.947021 210.0 
1791.881836 131.0 
1972.444458 346.0 
END IONS

BEGIN IONS
TITLE=Scan Number: 445
PEPMASS=318.27899
CHARGE=1+
MSLEVEL=2
FILENAME=A4_GA4_01_2684.mzXML
INSTRUMENT=ion trap
SCANS=445
SMILES=CCCCCCCCCC1CC(O)C(CC2=CC=CC=C2)N1C
INCHIKEY=GBCXKHLKJHRTAB-UHFFFAOYSA-N
69.940292 216.0 
70.065681 8483.0 
70.160454 222.0 
70.706619 174.0 
71.037865 170.0 
71.070549 575.0 
71.085114 926.0 
71.138779 127.0 
71.187263 107.0 
71.460114 73.0 
71.550293 246.0 
71.792427 75.0 
72.045403 2017.0 
72.083488 315.0 
72.493446 248.0 
72.643936 482.0 
72.981712 264.0 
73.052422 5642.0 
73.09491 38.0 
73.373604 243.0 
74.03933 310.0 
74.057632 381.0 
74.552345 235.0 
75.093018 199.0 
75.536346 160.0 
75.578087 176.0 
75.666023 122.0 
75.767494 139.0 
76.176926 405.0 
76.316956 311.0 
76.54454 86.0 
76.896912 181.0 
77.038818 660.0 
77.227325 259.0 
77.852226 137.0 
78.040871 125.0 
78.189285 332.0 
78.439316 47.0 
78.4608 218.0 
78.576691 156.0 
78.870041 54.0 
78.982132 43.0 
79.054398 9692.0 
79.109222 137.0 
79.309494 73.0 
79.466255 145.0 
79.606277 314.0 
79.718216 255.0 
79.81321 109.0 
79.860237 175.0 
79.933273 241.0 
80.050499 2916.0 
80.146599 30.0 
80.218109 230.0 
80.389519 122.0 
80.45079 190.0 
80.627235 195.0 
80.852226 34.0 
80.991722 193.0 
81.031021 155.0 
81.056824 7315.0 
81.067825 5366.0 
81.090904 129.0 
81.306381 50.0 
81.480453 82.0 
81.605385 187.0 
81.777 117.0 
81.880905 161.0 
81.92688 152.0 
82.065086 36310.0 
82.15966 232.0 
82.329201 30.0 
82.39566 167.0 
83.072723 6958.0 
83.085114 8289.0 
83.172653 233.0 
83.215446 58.0 
83.379616 154.0 
83.479469 55.0 
83.710632 50.0 
83.748558 381.0 
83.951874 312.0 
83.969513 330.0 
83.986244 150.0 
84.043839 152.0 
84.081474 3813.0 
84.157608 74.0 
84.215492 216.0 
84.258499 61.0 
84.807518 229.0 
85.104012 1152.0 
85.152504 46.0 
85.172607 177.0 
85.197556 40.0 
85.348946 156.0 
85.424744 80.0 
85.732117 132.0 
85.850677 236.0 
86.060822 1066.0 
86.094864 479.0 
86.118256 25.0 
86.158211 208.0 
86.300674 18.0 
86.406227 139.0 
86.54657 186.0 
86.603363 112.0 
86.636414 200.0 
86.988487 265.0 
87.065826 240.0 
87.277283 240.0 
87.327866 245.0 
87.490715 109.0 
87.962692 58.0 
88.11422 84.0 
88.389503 121.0 
88.83152 61.0 
89.539886 187.0 
89.699463 196.0 
89.792664 75.0 
89.926346 43.0 
90.070351 119.0 
90.125557 43.0 
90.185173 142.0 
90.471214 136.0 
90.488167 70.0 
90.894096 143.0 
90.936516 25.0 
90.983475 210.0 
91.012329 285.0 
91.05481 279085.0 
91.083694 94.0 
91.101639 19.0 
91.119774 121.0 
91.148537 357.0 
91.194839 101.0 
91.206429 125.0 
91.257004 225.0 
91.293007 37.0 
91.507622 55.0 
91.58223 301.0 
91.655006 195.0 
91.843071 267.0 
91.861496 97.0 
91.970596 159.0 
92.00444 27.0 
92.030518 232.0 
92.058685 19959.0 
92.1464 155.0 
92.329971 119.0 
92.38932 80.0 
92.432922 58.0 
92.523613 86.0 
92.551414 309.0 
92.66494 123.0 
92.756004 378.0 
92.785233 98.0 
92.82547 270.0 
92.891296 53.0 
93.004112 28.0 
93.03067 138.0 
93.069939 4050.0 
93.212906 113.0 
93.250946 71.0 
93.321808 41.0 
93.392082 172.0 
93.67984 92.0 
94.066154 7518.0 
94.211891 39.0 
94.244781 59.0 
94.308655 20.0 
94.429779 35.0 
94.576218 209.0 
94.594894 52.0 
94.65976 184.0 
95.049538 1137.0 
95.085838 5418.0 
95.171356 384.0 
95.252068 77.0 
95.496429 348.0 
95.647697 301.0 
95.70237 164.0 
95.785385 20.0 
95.876366 225.0 
95.923363 195.0 
95.997276 398.0 
96.040253 280.0 
96.081352 142868.0 
96.125839 232.0 
96.158806 70.0 
96.208672 81.0 
96.229187 88.0 
96.378914 58.0 
96.624016 139.0 
96.656387 135.0 
96.91124 113.0 
97.085159 9137.0 
97.100845 4446.0 
97.166893 99.0 
97.302376 160.0 
97.481392 46.0 
97.61869 78.0 
97.778931 235.0 
97.887177 98.0 
98.075089 28.0 
98.09343 1289.0 
98.217491 29.0 
98.38475 103.0 
98.648987 43.0 
99.070496 140.0 
99.232391 70.0 
99.526978 139.0 
99.704041 221.0 
100.077255 3567.0 
100.110466 364.0 
100.213684 281.0 
100.299713 160.0 
100.694809 38.0 
101.07872 278.0 
101.22226 65.0 
101.400406 121.0 
101.629791 96.0 
101.657471 138.0 
101.878517 61.0 
101.986137 78.0 
102.01413 297.0 
102.048943 98.0 
102.122101 130.0 
102.416008 76.0 
102.47847 246.0 
102.492401 193.0 
102.520798 293.0 
102.591263 332.0 
102.654472 165.0 
102.952599 202.0 
103.025528 215.0 
103.054848 9895.0 
103.151443 63.0 
103.228203 230.0 
103.292099 35.0 
103.372231 69.0 
103.780342 248.0 
104.05925 2958.0 
104.121422 113.0 
104.285408 194.0 
104.415863 115.0 
104.668747 135.0 
105.045776 6604.0 
105.070442 74438.0 
105.101616 196.0 
105.13089 45.0 
105.270683 164.0 
105.452293 245.0 
105.642448 169.0 
105.786301 120.0 
105.840462 160.0 
105.891655 219.0 
106.047676 675.0 
106.073547 5576.0 
106.286888 49.0 
106.372665 152.0 
106.551987 63.0 
106.576202 310.0 
106.660278 196.0 
106.741127 189.0 
106.864861 117.0 
106.960358 73.0 
106.979568 174.0 
107.021049 307.0 
107.048882 129.0 
107.066826 223.0 
107.087021 1153.0 
107.43174 191.0 
107.457489 408.0 
107.619064 134.0 
107.684761 57.0 
107.791336 139.0 
107.890526 304.0 
108.083992 519.0 
108.14563 313.0 
109.101669 1938.0 
110.097198 11813.0 
110.12841 188.0 
110.146736 190.0 
110.234741 19.0 
110.270233 143.0 
110.567863 312.0 
111.100113 922.0 
111.117241 590.0 
111.322105 404.0 
111.425285 199.0 
111.521393 176.0 
111.838654 135.0 
112.112801 3361.0 
112.144821 207.0 
112.658684 119.0 
112.74527 166.0 
112.810875 222.0 
113.118935 566.0 
113.302757 30.0 
113.959808 97.0 
114.089523 210.0 
114.544586 355.0 
115.00264 293.0 
115.05484 22790.0 
115.101379 118.0 
115.305138 93.0 
115.468094 177.0 
115.750626 233.0 
116.061523 6770.0 
116.114182 184.0 
116.225151 34.0 
116.247017 399.0 
116.684334 35.0 
116.908539 193.0 
117.006973 145.0 
117.070335 52087.0 
117.181099 197.0 
117.341393 170.0 
117.603653 250.0 
117.843025 103.0 
118.067345 12630.0 
118.115074 87.0 
118.270889 132.0 
118.398254 169.0 
118.592972 48.0 
118.883072 90.0 
118.897827 62.0 
118.925629 276.0 
119.023827 70.0 
119.073708 34118.0 
119.109344 85.0 
119.177696 176.0 
119.206856 51.0 
119.296631 35.0 
119.564346 26.0 
119.948967 312.0 
120.001953 141.0 
120.080673 7246.0 
120.222488 243.0 
120.724068 203.0 
120.780029 330.0 
120.856674 120.0 
120.887207 178.0 
120.967796 75.0 
121.079468 605.0 
121.099548 826.0 
121.197327 173.0 
121.263367 286.0 
121.729958 109.0 
121.852997 125.0 
122.10704 305.0 
122.14669 216.0 
122.753059 100.0 
123.089844 289.0 
123.119286 233.0 
123.323082 219.0 
124.077843 309.0 
124.112892 2977.0 
124.207558 201.0 
124.420547 132.0 
125.119385 193.0 
125.160385 103.0 
125.438499 234.0 
126.084023 108.0 
126.128532 1096.0 
126.238319 145.0 
126.515053 62.0 
126.611526 165.0 
126.633171 116.0 
126.812218 73.0 
126.832779 138.0 
127.05307 707.0 
127.134109 358.0 
127.272377 328.0 
127.698669 127.0 
127.787384 263.0 
127.890938 370.0 
128.018875 239.0 
128.062622 14498.0 
128.109177 247.0 
128.145142 121.0 
128.172241 34.0 
128.276016 183.0 
128.473663 265.0 
128.504059 281.0 
128.812607 350.0 
129.070328 38844.0 
129.131485 53.0 
129.15834 52.0 
129.580704 74.0 
129.71936 215.0 
129.745193 72.0 
130.066742 15741.0 
130.264053 118.0 
130.4086 221.0 
130.636627 172.0 
130.809952 24.0 
131.074722 33554.0 
131.122864 40.0 
131.213928 55.0 
131.489136 21.0 
131.508194 74.0 
131.832474 147.0 
131.930069 202.0 
132.023163 105.0 
132.081757 44302.0 
132.162903 81.0 
132.281799 85.0 
132.372253 197.0 
132.953751 132.0 
133.020554 440.0 
133.06575 30464.0 
133.088943 55615.0 
133.202728 19.0 
133.231262 52.0 
133.257019 46.0 
133.277405 183.0 
133.337616 214.0 
133.375519 180.0 
133.464554 295.0 
133.53949 74.0 
133.611542 114.0 
133.654297 182.0 
133.749939 206.0 
133.782425 93.0 
133.835663 184.0 
133.924957 87.0 
134.042328 207.0 
134.097061 112404.0 
134.198318 112.0 
134.221405 186.0 
134.285767 89.0 
134.349976 57.0 
134.39563 142.0 
134.563324 25.0 
134.604538 354.0 
134.636398 176.0 
134.686661 61.0 
135.09938 11350.0 
135.156113 51.0 
135.197845 46.0 
135.232269 94.0 
135.329788 65.0 
135.947784 68.0 
135.97847 97.0 
136.010376 340.0 
136.089005 201.0 
136.108368 190.0 
136.156967 159.0 
136.18866 99.0 
136.203354 141.0 
136.380768 85.0 
136.532486 336.0 
136.9375 255.0 
137.126724 214.0 
137.22966 230.0 
137.677155 270.0 
138.126984 4245.0 
138.265137 276.0 
138.527008 90.0 
139.067093 111.0 
139.132904 522.0 
139.540314 101.0 
139.633743 215.0 
140.009583 191.0 
140.096664 86.0 
140.14296 671.0 
141.073669 1349.0 
141.101425 29.0 
141.128738 167.0 
141.242752 202.0 
141.332199 29.0 
141.350937 92.0 
141.589722 53.0 
141.62706 81.0 
141.838425 59.0 
141.927597 76.0 
142.021423 181.0 
142.078339 2779.0 
142.16037 156.0 
142.609314 261.0 
142.855179 121.0 
143.085999 14880.0 
143.12178 274.0 
143.232941 46.0 
143.297333 303.0 
143.548813 343.0 
143.611023 83.0 
143.967255 190.0 
144.081177 15896.0 
144.332092 326.0 
144.39798 57.0 
144.552139 90.0 
144.777618 56.0 
145.08931 8755.0 
145.567261 65.0 
145.723175 202.0 
145.939499 78.0 
146.031937 34.0 
146.09726 77090.0 
146.156265 36.0 
146.192978 194.0 
146.270523 42.0 
146.29248 70.0 
146.425842 135.0 
146.497452 75.0 
146.640686 85.0 
146.81633 279.0 
147.029083 41.0 
147.10257 15078.0 
147.158615 46.0 
147.213242 157.0 
147.278946 80.0 
147.323685 92.0 
147.685867 352.0 
147.791519 21.0 
147.953415 166.0 
148.087555 1289.0 
148.112762 53411.0 
148.17012 23.0 
148.26178 191.0 
148.293533 177.0 
148.371643 82.0 
148.424057 86.0 
148.597031 20.0 
149.115891 4388.0 
149.230637 119.0 
149.600845 138.0 
149.685837 238.0 
149.746597 64.0 
149.77272 175.0 
150.050201 130.0 
150.256866 210.0 
150.452606 38.0 
150.656906 226.0 
151.080536 164.0 
151.199692 200.0 
151.236282 343.0 
151.447754 214.0 
151.73259 208.0 
151.781128 219.0 
152.14473 4157.0 
152.287613 38.0 
152.656616 379.0 
153.067169 503.0 
153.122528 122.0 
153.15358 379.0 
153.975067 200.0 
154.058502 188.0 
154.141602 119.0 
154.159317 371.0 
154.553238 201.0 
154.568451 230.0 
154.733093 566.0 
154.948685 58.0 
155.061447 5065.0 
155.086853 1189.0 
155.167007 587.0 
156.059784 605.0 
156.087265 726.0 
156.177628 422.0 
156.500824 192.0 
156.554871 131.0 
156.598572 52.0 
156.862793 241.0 
157.100296 2221.0 
157.137436 244.0 
157.184402 157.0 
157.942032 258.0 
158.033081 290.0 
158.097855 16808.0 
158.170578 46.0 
158.397552 151.0 
159.104004 5583.0 
159.24791 51.0 
159.429703 128.0 
159.6147 92.0 
159.957428 152.0 
160.021103 296.0 
160.046387 369.0 
160.112991 47418.0 
160.233994 65.0 
160.257629 46.0 
160.389755 69.0 
160.55307 233.0 
160.591949 229.0 
160.782135 233.0 
160.800278 368.0 
160.986908 275.0 
161.116333 6450.0 
161.283157 103.0 
161.966766 176.0 
162.013153 208.0 
162.226044 139.0 
162.247986 261.0 
162.324722 124.0 
162.353378 125.0 
162.440887 123.0 
162.529861 112.0 
162.976181 448.0 
163.149933 70.0 
163.657318 153.0 
163.800308 180.0 
164.107803 13833.0 
164.301758 184.0 
164.531662 242.0 
164.73616 183.0 
164.981628 228.0 
165.084351 170.0 
165.111145 1602.0 
165.165039 118.0 
165.762115 47.0 
166.159851 3789.0 
166.316589 302.0 
166.419418 71.0 
166.535263 55.0 
166.769348 140.0 
167.084564 135.0 
167.165009 103.0 
167.279282 76.0 
167.353989 250.0 
167.382446 102.0 
167.573654 286.0 
167.791855 29.0 
168.09343 181.0 
168.176682 1732.0 
168.400574 47.0 
168.79953 170.0 
169.103561 123.0 
169.184174 186.0 
169.283646 233.0 
169.321075 62.0 
169.501312 132.0 
169.55043 106.0 
169.653122 157.0 
169.793716 211.0 
169.880707 334.0 
169.931793 22.0 
169.968369 63.0 
170.047424 178.0 
170.074554 97.0 
170.095764 785.0 
170.191422 133532.0 
170.247284 344.0 
170.294342 51.0 
170.366318 20.0 
170.418884 139.0 
170.466812 218.0 
170.977524 128.0 
171.032303 111.0 
171.078049 158.0 
171.110474 981.0 
171.194763 14657.0 
171.346588 438.0 
171.382843 58.0 
171.688126 49.0 
171.741364 104.0 
171.793488 109.0 
171.880142 283.0 
171.990189 154.0 
172.016006 92.0 
172.038727 137.0 
172.070801 300.0 
172.113541 27300.0 
172.229477 112.0 
172.261993 48.0 
172.439285 55.0 
172.513443 99.0 
172.618881 129.0 
172.679642 275.0 
172.729523 171.0 
172.895218 19.0 
173.06044 154.0 
173.120468 11293.0 
173.150009 222.0 
173.93988 90.0 
174.129028 25547.0 
174.17157 29.0 
174.365479 78.0 
174.498917 50.0 
174.519592 114.0 
174.571304 201.0 
174.607269 51.0 
174.918121 144.0 
175.034363 80.0 
175.132233 1964.0 
175.203613 180.0 
175.456207 87.0 
175.656433 208.0 
176.155991 68.0 
176.250137 122.0 
176.518951 97.0 
176.608261 59.0 
177.404816 173.0 
177.737396 65.0 
177.934982 230.0 
178.135086 94.0 
178.172577 422.0 
178.210403 149.0 
178.307251 286.0 
178.368973 248.0 
180.148148 193.0 
180.176636 1798.0 
180.382584 19.0 
181.004578 184.0 
181.068756 148.0 
181.179886 816.0 
181.944702 110.0 
182.193176 705.0 
182.884354 272.0 
183.076782 64.0 
183.118347 253.0 
183.304565 43.0 
183.851807 26.0 
184.112122 180.0 
184.205429 2844.0 
184.705582 229.0 
184.718979 206.0 
184.864685 74.0 
185.088165 62.0 
185.213058 143.0 
186.029343 237.0 
186.128326 12119.0 
186.283401 205.0 
186.385376 76.0 
186.532181 128.0 
186.802994 114.0 
186.85614 119.0 
187.133942 1939.0 
187.226089 37.0 
187.408539 199.0 
187.719193 261.0 
187.783569 135.0 
188.146194 1433.0 
188.26741 244.0 
188.304123 119.0 
188.960327 297.0 
189.780472 257.0 
189.82637 130.0 
189.947098 174.0 
190.277664 221.0 
190.428665 29.0 
190.655045 257.0 
190.9021 280.0 
190.985641 241.0 
191.023651 84.0 
191.726379 255.0 
192.093048 252.0 
192.17395 160.0 
193.011642 139.0 
193.184494 138.0 
193.242401 152.0 
193.335358 149.0 
194.19249 2696.0 
195.178085 230.0 
195.195816 239.0 
195.391571 232.0 
195.437424 47.0 
195.941299 254.0 
196.03215 259.0 
196.207611 2708.0 
197.211548 930.0 
197.401215 86.0 
197.750229 79.0 
198.181122 154.0 
198.230392 382.0 
198.993835 218.0 
199.144363 245.0 
199.248489 341.0 
199.421219 70.0 
200.144241 5407.0 
200.523239 76.0 
200.72879 264.0 
200.869431 29.0 
201.138641 226.0 
201.197388 335.0 
202.007629 74.0 
202.158798 455.0 
203.607941 234.0 
204.573914 76.0 
204.71431 221.0 
205.11319 168.0 
206.151611 100.0 
206.190674 223.0 
206.412994 248.0 
206.8367 68.0 
207.185394 207.0 
207.816574 90.0 
208.092911 81.0 
208.152359 142.0 
208.207306 12506.0 
208.298599 194.0 
208.93927 127.0 
209.004944 94.0 
209.213623 4766.0 
209.355652 287.0 
209.526306 116.0 
210.216553 943.0 
210.401077 64.0 
210.59494 311.0 
210.752136 138.0 
211.5495 279.0 
211.609039 149.0 
211.695969 80.0 
211.874817 101.0 
212.473984 72.0 
212.549149 54.0 
212.748367 227.0 
214.035324 105.0 
214.096832 287.0 
214.158356 1080.0 
214.213943 193.0 
214.984955 241.0 
215.023026 226.0 
215.166306 367.0 
215.590378 106.0 
216.175598 27.0 
216.444885 253.0 
217.191147 142.0 
217.244843 331.0 
217.852478 92.0 
218.007507 306.0 
219.798981 65.0 
220.177048 174.0 
220.384537 88.0 
220.92984 29.0 
220.990952 137.0 
222.20195 75.0 
222.227936 338.0 
222.375717 272.0 
222.583496 200.0 
222.702911 228.0 
223.119675 161.0 
223.458725 176.0 
223.72403 83.0 
223.806885 290.0 
224.213669 334.0 
224.820053 316.0 
225.582352 74.0 
225.813324 241.0 
226.130493 88.0 
226.176743 740.0 
226.218994 51593.0 
226.316559 162.0 
226.425919 153.0 
226.500793 172.0 
226.556381 222.0 
226.893265 233.0 
227.031219 69.0 
227.22226 4827.0 
227.414536 176.0 
227.695312 80.0 
227.77829 125.0 
228.175903 1008.0 
228.257492 92.0 
228.865768 148.0 
229.044617 48.0 
229.156235 287.0 
229.381653 194.0 
229.452896 185.0 
230.047623 110.0 
230.387848 298.0 
231.130188 176.0 
232.030136 156.0 
233.495407 301.0 
233.651917 316.0 
233.961105 170.0 
234.208694 307.0 
234.373993 66.0 
235.560028 97.0 
236.719421 230.0 
238.96785 21.0 
239.332962 239.0 
239.743515 75.0 
240.233871 281.0 
240.379425 145.0 
240.440598 136.0 
240.696152 149.0 
240.814301 160.0 
241.710785 70.0 
241.931961 118.0 
242.193558 369.0 
242.219086 104.0 
242.259705 169.0 
242.867004 78.0 
243.204376 149.0 
243.513474 317.0 
243.892593 286.0 
244.007568 210.0 
244.078674 22.0 
244.162659 75.0 
244.207153 120.0 
244.829727 249.0 
245.218872 161.0 
246.200073 79.0 
246.783508 192.0 
246.890915 194.0 
247.225266 114.0 
247.362274 155.0 
249.653168 243.0 
250.145523 120.0 
250.937973 207.0 
251.177109 80.0 
253.684067 270.0 
256.204285 161.0 
257.742828 219.0 
257.878204 114.0 
258.056824 158.0 
258.116943 145.0 
258.219696 423.0 
258.994751 231.0 
259.241577 229.0 
260.224609 78.0 
260.536987 235.0 
261.551819 113.0 
261.757416 158.0 
262.62381 175.0 
262.750732 212.0 
262.924927 132.0 
263.163513 191.0 
264.930573 44.0 
266.231903 194.0 
267.056061 252.0 
267.227814 311.0 
267.659058 175.0 
267.888336 175.0 
268.812897 29.0 
269.224884 192.0 
269.419037 280.0 
270.008789 309.0 
270.140991 277.0 
270.219574 166.0 
270.477051 307.0 
271.219482 102.0 
271.38504 162.0 
271.476379 221.0 
271.575043 175.0 
271.655792 289.0 
272.238525 990.0 
272.695831 383.0 
273.240784 522.0 
274.248688 256.0 
274.64151 110.0 
274.897766 220.0 
275.563843 253.0 
277.131775 285.0 
277.586456 286.0 
278.871552 39.0 
279.494995 204.0 
279.800354 169.0 
280.630615 73.0 
281.076874 200.0 
282.194855 234.0 
282.851654 168.0 
283.906372 210.0 
284.244629 214.0 
284.963287 155.0 
285.199005 142.0 
285.246887 169.0 
285.687744 93.0 
286.143188 127.0 
286.431335 170.0 
286.525208 376.0 
286.572937 199.0 
287.759796 393.0 
287.900574 157.0 
288.139801 412.0 
288.842316 283.0 
289.203583 301.0 
290.662476 241.0 
290.966919 191.0 
291.099274 200.0 
291.95636 86.0 
292.267395 114.0 
292.679901 45.0 
293.105835 35.0 
293.327545 113.0 
294.138062 448.0 
294.885956 186.0 
295.376495 253.0 
295.68335 263.0 
295.717499 264.0 
295.7948 94.0 
295.857147 262.0 
296.198669 103.0 
296.265656 153.0 
296.33139 85.0 
297.5112 106.0 
297.635864 102.0 
297.970703 86.0 
298.202271 260.0 
298.252777 2336.0 
298.301849 126.0 
298.444519 98.0 
298.485168 115.0 
298.509186 107.0 
298.553375 93.0 
298.629425 130.0 
298.807892 290.0 
298.881744 52.0 
298.980408 215.0 
299.044739 39.0 
299.090668 120.0 
299.121796 239.0 
299.161255 455.0 
299.203979 669.0 
299.285248 544.0 
299.417664 407.0 
299.508698 283.0 
299.552948 832.0 
299.613892 1066.0 
299.692261 269.0 
299.750031 572.0 
299.809875 134.0 
299.830505 243.0 
299.870117 583.0 
299.90451 439.0 
299.939514 312.0 
299.963867 351.0 
300.029999 534.0 
300.066833 316.0 
300.090759 334.0 
300.140167 1476.0 
300.271027 876831.0 
300.320801 600.0 
300.37915 693.0 
300.451263 220.0 
300.483459 627.0 
300.54245 217.0 
300.612396 439.0 
300.688812 206.0 
300.750946 243.0 
300.798859 316.0 
300.857819 218.0 
300.883484 249.0 
300.923462 141.0 
300.983551 373.0 
301.041809 115.0 
301.09198 313.0 
301.123627 320.0 
301.155731 356.0 
301.274139 141394.0 
301.321655 983.0 
301.405029 325.0 
301.436462 169.0 
301.463043 112.0 
301.518402 348.0 
301.577484 193.0 
301.624237 174.0 
301.66864 20.0 
301.708008 322.0 
301.723541 303.0 
301.784363 97.0 
301.808838 246.0 
301.857635 78.0 
301.94162 490.0 
302.096832 19.0 
302.124512 93.0 
302.278046 1601.0 
302.344025 268.0 
302.388062 40.0 
302.41272 159.0 
302.485565 100.0 
302.517975 86.0 
302.596008 81.0 
302.65036 298.0 
302.696777 48.0 
302.771759 136.0 
302.838867 266.0 
302.889008 158.0 
302.931152 208.0 
302.966614 178.0 
303.029083 210.0 
303.059784 39.0 
303.08255 84.0 
303.132751 77.0 
303.209839 236.0 
303.274475 169.0 
303.311584 437.0 
303.350159 174.0 
303.380737 258.0 
303.427948 275.0 
303.450348 218.0 
303.508392 182.0 
303.542694 229.0 
303.594086 138.0 
303.624237 66.0 
303.754913 60.0 
303.785706 171.0 
304.062866 46.0 
304.13382 74.0 
304.383636 122.0 
304.6633 75.0 
304.920624 60.0 
305.153381 90.0 
306.919647 97.0 
307.960144 185.0 
308.298859 281.0 
310.651672 31.0 
312.507233 18.0 
312.877075 290.0 
313.034821 46.0 
313.136749 54.0 
313.610931 78.0 
313.786804 171.0 
313.917816 128.0 
313.946777 46.0 
314.479828 147.0 
314.582825 18.0 
315.150909 242.0 
315.49057 172.0 
315.661591 47.0 
315.687286 91.0 
315.954651 185.0 
316.1185 29.0 
316.190826 156.0 
316.231903 108.0 
316.26181 76.0 
316.320374 496.0 
316.557739 433.0 
316.657806 24.0 
316.695801 103.0 
316.767426 206.0 
316.814301 153.0 
316.850128 208.0 
316.884338 146.0 
317.013397 467.0 
317.07724 162.0 
317.093689 132.0 
317.127106 97.0 
317.17511 141.0 
317.233398 163.0 
317.328644 520.0 
317.364136 520.0 
317.425842 410.0 
317.45639 226.0 
317.486359 92.0 
317.549622 558.0 
317.603638 453.0 
317.667267 74.0 
317.697083 310.0 
317.72406 284.0 
317.762665 368.0 
317.822418 343.0 
317.882507 322.0 
317.918518 439.0 
317.987732 693.0 
318.01825 548.0 
318.089233 1273.0 
318.154602 1672.0 
318.181824 1807.0 
318.281708 1056252.0 
318.378967 195.0 
318.416199 226.0 
318.46283 111.0 
318.51889 976.0 
318.570038 648.0 
318.613342 377.0 
318.645264 351.0 
318.787018 1266.0 
318.891388 259.0 
318.963654 832.0 
319.017487 523.0 
319.049164 172.0 
319.113403 195.0 
319.165924 797.0 
319.284973 149350.0 
319.384064 221.0 
319.522827 38.0 
319.557343 154.0 
319.582947 96.0 
319.631073 25.0 
319.669525 230.0 
319.703094 31.0 
319.740295 34.0 
319.81076 282.0 
319.867401 35.0 
319.91687 135.0 
319.990967 119.0 
320.029694 94.0 
320.146362 62.0 
320.287323 657.0 
320.325043 204.0 
320.435181 76.0 
320.478088 388.0 
320.528198 142.0 
320.594696 227.0 
320.642914 81.0 
320.670074 62.0 
320.719727 20.0 
320.763733 37.0 
320.800201 176.0 
320.839661 85.0 
320.868927 97.0 
320.962646 179.0 
320.990814 43.0 
321.028473 111.0 
321.05838 193.0 
321.116852 246.0 
321.185883 339.0 
321.222992 185.0 
321.24588 346.0 
321.316986 480.0 
321.388397 300.0 
321.414703 241.0 
321.450287 169.0 
321.478485 189.0 
321.512329 223.0 
321.538513 285.0 
321.591888 402.0 
321.661743 629.0 
321.756989 31.0 
321.882568 79.0 
321.942535 41.0 
321.976807 113.0 
322.315094 28.0 
322.353455 152.0 
322.40036 53.0 
322.465088 138.0 
322.52066 97.0 
322.609863 346.0 
322.64566 41.0 
322.776489 26.0 
322.804138 81.0 
324.213928 68.0 
324.289673 55.0 
325.941315 66.0 
326.10495 86.0 
328.813049 42.0 
330.226685 71.0 
330.797302 61.0 
331.108246 51.0 
331.164154 122.0 
331.298096 93.0 
332.569489 87.0 
334.025513 72.0 
334.730927 29.0 
334.816925 45.0 
334.937866 84.0 
335.346802 65.0 
335.612854 55.0 
335.846466 58.0 
335.924591 87.0 
336.169617 99.0 
336.220612 49.0 
336.490845 25.0 
337.072388 60.0 
337.664612 53.0 
339.615021 103.0 
339.715271 48.0 
340.391815 20.0 
340.803101 67.0 
341.398834 47.0 
344.42334 71.0 
346.818176 61.0 
349.470856 128.0 
350.21756 37.0 
352.975525 37.0 
355.936584 37.0 
371.360291 124.0 
380.417633 53.0 
381.186066 142.0 
390.041412 180.0 
390.820435 28.0 
396.556915 128.0 
420.910645 114.0 
464.281219 104.0 
499.435547 27.0 
536.599915 35.0 
584.189026 128.0 
635.071167 43.0 
684.298523 62.0 
699.80603 30.0 
834.299438 45.0 
900.178223 75.0 
914.136292 248.0 
951.67627 68.0 
985.885498 30.0 
1057.464844 133.0 
1074.634277 313.0 
1133.930542 233.0 
1139.475098 57.0 
1147.585815 120.0 
1154.986694 357.0 
1178.118652 297.0 
1183.666504 46.0 
1184.590942 339.0 
1234.934326 223.0 
1281.313354 197.0 
1403.650146 288.0 
1428.156128 236.0 
1429.444946 286.0 
1513.794434 160.0 
1540.429565 158.0 
1540.579712 242.0 
1588.403076 241.0 
1592.603271 155.0 
1596.880371 304.0 
1626.108276 238.0 
1633.445679 276.0 
1636.680542 461.0 
1654.783203 107.0 
1656.171143 131.0 
1682.071655 360.0 
1698.268433 160.0 
1707.695435 294.0 
1756.828613 88.0 
1763.21936 179.0 
1766.321411 217.0 
1770.966553 196.0 
1771.407837 219.0 
1777.581421 215.0 
1783.994629 193.0 
1809.057373 165.0 
1810.869507 223.0 
1822.771973 170.0 
1823.753296 217.0 
1827.164185 272.0 
1828.696167 164.0 
1833.043945 299.0 
1839.171753 196.0 
1862.862427 315.0 
1865.915894 144.0 
1868.225464 292.0 
1876.38501 179.0 
1876.491577 48.0 
1879.549194 210.0 
1880.947144 137.0 
1902.723022 212.0 
1906.614868 100.0 
1920.732666 216.0 
1926.296387 290.0 
1931.183716 128.0 
1942.540527 151.0 
1955.574097 167.0 
1975.843384 168.0 
1976.766968 226.0 
1978.423462 267.0 
1983.454346 318.0 
1989.298462 294.0 
1989.360962 235.0 
1993.120117 267.0 
END IONS

BEGIN IONS
TITLE=Scan Number: 446
PEPMASS=379.17499
CHARGE=1+
MSLEVEL=2
FILENAME=A4_GA4_01_2684.mzXML
INSTRUMENT=ion trap
SCANS=446
SMILES=COC1=C(C=C2C=CC(=O)OC2=C1)C(OC(=O)CC(C)C)C(O)C(C)(C)O
INCHIKEY=WPJFTNISWIMPLM-UHFFFAOYSA-N
71.204948 232.0 
75.817703 139.0 
79.051552 207.0 
85.025612 182.0 
91.482925 255.0 
93.062752 210.0 
94.114578 325.0 
101.235008 276.0 
102.767143 99.0 
103.053207 416.0 
104.06105 345.0 
105.071136 925.0 
107.049072 521.0 
111.04332 99.0 
116.060257 88.0 
117.069977 463.0 
118.042847 102.0 
118.668182 83.0 
119.042854 356.0 
120.940346 198.0 
121.065109 1491.0 
125.396996 159.0 
130.067841 189.0 
131.048981 2665.0 
132.059799 259.0 
133.067551 776.0 
134.035751 646.0 
135.03978 319.0 
135.08046 976.0 
136.185059 122.0 
137.058044 205.0 
139.428665 264.0 
141.042816 186.0 
142.076813 201.0 
143.050034 212.0 
143.082764 220.0 
144.042053 262.0 
145.065781 449.0 
145.10257 289.0 
146.031265 554.0 
146.076187 151.0 
146.103577 182.0 
146.807739 90.0 
147.045441 1179.0 
147.080902 790.0 
148.053024 454.0 
148.707886 149.0 
149.065918 449.0 
156.072952 132.0 
157.063828 257.0 
158.075836 307.0 
159.041412 578.0 
159.083847 857.0 
160.001221 178.0 
160.053192 5835.0 
161.059036 1798.0 
161.091949 429.0 
162.027283 231.0 
162.064331 285.0 
162.099503 121.0 
163.07634 1973.0 
164.072433 155.0 
164.13298 263.0 
171.081467 139.0 
172.448639 85.0 
173.038483 330.0 
173.060547 792.0 
174.0345 630.0 
175.01651 172.0 
175.040482 2125.0 
175.079269 215.0 
175.111404 94.0 
175.388672 177.0 
175.555939 161.0 
176.044571 1949.0 
177.015778 163.0 
177.055038 1770.0 
177.476578 82.0 
178.036057 140.0 
178.062408 211.0 
179.325806 190.0 
182.071823 222.0 
183.062393 264.0 
183.086044 309.0 
183.846024 184.0 
184.048721 274.0 
184.208603 246.0 
185.090744 101.0 
186.031174 122.0 
187.017654 232.0 
187.041931 3687.0 
188.038147 411.0 
188.083344 336.0 
189.029541 161.0 
189.055283 2705.0 
189.090881 324.0 
190.063934 3157.0 
190.999313 730.0 
191.034668 14913.0 
191.07077 4233.0 
191.169632 229.0 
191.336044 256.0 
191.664688 265.0 
191.900162 352.0 
192.037781 1837.0 
192.073181 197.0 
193.029404 86.0 
195.00975 225.0 
197.054123 142.0 
198.070892 330.0 
199.07692 673.0 
199.12384 156.0 
201.055832 1411.0 
202.056808 219.0 
203.032837 2564.0 
203.069412 322.0 
203.101822 119.0 
203.171265 179.0 
204.034332 347.0 
204.995789 266.0 
205.049881 21394.0 
205.995834 183.0 
206.057419 8088.0 
206.194641 126.0 
207.066635 2715.0 
207.341843 124.0 
208.069275 165.0 
208.469009 127.0 
208.658188 241.0 
211.079742 273.0 
212.985306 209.0 
213.056595 293.0 
213.768936 96.0 
216.092728 349.0 
217.046234 118.0 
217.087082 376.0 
218.494583 117.0 
218.808853 117.0 
218.996002 384.0 
219.066116 35693.0 
219.568802 342.0 
219.748032 149.0 
220.069336 3328.0 
220.624451 110.0 
221.644958 111.0 
226.065186 301.0 
227.073456 1123.0 
230.057251 185.0 
230.620804 186.0 
230.765381 97.0 
231.027039 128.0 
231.10231 18886.0 
232.10701 2575.0 
233.574707 88.0 
236.382767 230.0 
237.080231 159.0 
238.738983 308.0 
241.089523 243.0 
243.060974 278.0 
245.082291 912.0 
259.062592 853.0 
259.096649 6902.0 
260.100891 1404.0 
263.086823 171.0 
277.059021 162.0 
277.109161 3040.0 
285.138184 304.0 
288.638855 122.0 
291.104675 322.0 
291.131683 501.0 
295.115509 397.0 
301.21051 137.0 
305.109283 171.0 
321.140839 243.0 
329.048035 83.0 
334.207733 275.0 
334.67392 274.0 
343.338593 125.0 
347.155945 83.0 
348.156799 128.0 
357.328583 190.0 
361.163239 496.0 
362.183411 425.0 
373.309906 176.0 
374.250885 170.0 
376.030548 102.0 
376.889832 83.0 
377.865753 118.0 
378.065002 168.0 
378.171844 154.0 
378.28598 159.0 
378.449371 97.0 
378.531891 222.0 
378.57962 400.0 
378.682159 169.0 
379.006927 186.0 
379.177521 144495.0 
379.33902 209.0 
379.586945 183.0 
379.684021 173.0 
379.890198 119.0 
379.951019 199.0 
380.079773 166.0 
380.180573 19889.0 
380.375488 149.0 
380.787872 199.0 
380.958496 209.0 
381.16806 272.0 
381.431763 166.0 
382.734467 185.0 
391.157074 110.0 
392.280731 114.0 
701.600098 176.0 
1977.447754 205.0 
END IONS

BEGIN IONS
TITLE=Scan Number: 447
PEPMASS=361.164
CHARGE=1+
MSLEVEL=2
FILENAME=A4_GA4_01_2684.mzXML
INSTRUMENT=ion trap
SCANS=447
SMILES=COC1=C(C=C2C=CC(=O)OC2=C1)C(OC(=O)CC(C)C)C(O)C(C)(C)O
INCHIKEY=WPJFTNISWIMPLM-UHFFFAOYSA-N
79.020889 214.0 
81.068268 216.0 
85.055183 119.0 
91.055527 262.0 
121.063431 311.0 
122.067741 183.0 
131.048447 592.0 
132.053055 143.0 
135.084061 143.0 
142.071594 129.0 
146.112503 170.0 
147.04483 581.0 
148.049469 188.0 
156.054077 132.0 
161.061142 597.0 
162.030289 192.0 
175.042938 350.0 
176.045502 662.0 
177.051346 433.0 
187.041855 206.0 
188.043304 150.0 
189.055145 741.0 
190.06839 143.0 
191.06897 412.0 
192.073685 123.0 
201.051102 194.0 
204.015289 193.0 
204.045807 117.0 
205.050354 1560.0 
206.059586 152.0 
213.128448 175.0 
219.065842 3510.0 
220.071548 644.0 
221.154877 151.0 
231.099991 216.0 
260.099976 196.0 
265.215454 152.0 
303.126221 510.0 
441.083832 167.0 
END IONS

BEGIN IONS
TITLE=Scan Number: 448
PEPMASS=393.20599
CHARGE=1+
MSLEVEL=2
FILENAME=A4_GA4_01_2684.mzXML
INSTRUMENT=ion trap
SCANS=448
SMILES=CC(C)=CCC\C(C)=C\CC1=C(O)C=C(\C=C\C2=CC=CC=C2)C(C(O)=O)=C1O
INCHIKEY=WHNBKYRXAOMPAE-VSMNQWMWSA-N
73.663361 302.0 
75.522224 244.0 
75.98893 185.0 
77.929604 283.0 
81.053848 300.0 
81.070137 1057.0 
82.819527 213.0 
88.267975 169.0 
91.05545 1363.0 
93.032944 654.0 
95.011917 185.0 
95.087738 362.0 
98.413666 372.0 
103.058487 380.0 
105.032188 550.0 
106.030617 133.0 
107.013206 192.0 
107.08403 170.0 
109.103012 357.0 
109.343689 315.0 
109.968895 261.0 
111.114677 140.0 
115.052299 674.0 
119.059914 209.0 
120.76918 92.0 
123.116814 483.0 
124.118446 377.0 
128.038544 135.0 
128.062592 436.0 
129.069611 1802.0 
129.401535 236.0 
130.073318 230.0 
131.046432 184.0 
134.491119 280.0 
135.044724 273.0 
136.103043 220.0 
139.28154 193.0 
140.245148 97.0 
140.320358 289.0 
141.018906 172.0 
141.070206 4629.0 
142.076691 133.0 
143.058914 181.0 
144.871872 186.0 
145.023682 204.0 
147.041687 175.0 
148.465622 119.0 
149.019302 195.0 
149.494049 120.0 
150.443909 104.0 
152.062363 8822.0 
152.420593 158.0 
153.069946 1604.0 
153.166183 115.0 
153.325211 145.0 
154.07695 164.0 
155.050491 2558.0 
155.085327 1064.0 
155.694412 317.0 
155.981766 134.0 
156.431976 108.0 
157.731873 106.0 
158.070953 244.0 
163.038727 120.0 
165.069962 6988.0 
166.005005 268.0 
166.077988 4269.0 
166.969543 470.0 
167.08548 20406.0 
167.529785 142.0 
168.088181 2307.0 
169.06398 1680.0 
169.976944 209.0 
171.040298 230.0 
171.573502 154.0 
172.229996 80.0 
175.042557 92.0 
175.488541 315.0 
176.061996 1313.0 
176.619217 215.0 
177.012497 122.0 
177.069595 7343.0 
177.253708 77.0 
177.453812 142.0 
177.567078 112.0 
178.074799 3183.0 
179.058533 156.0 
179.089828 998.0 
179.504517 209.0 
180.061661 517.0 
181.039169 197.0 
181.064651 1476.0 
181.867157 206.0 
182.065521 343.0 
182.881409 383.0 
183.044495 173.0 
183.080078 1538.0 
184.042435 166.0 
184.086777 222.0 
185.511124 302.0 
189.053696 219.0 
191.033081 123.0 
192.041229 220.0 
193.065994 419.0 
194.072235 1803.0 
194.543381 208.0 
195.014954 159.0 
195.080093 15332.0 
196.083755 1286.0 
196.984985 400.0 
196.998947 419.0 
197.059067 23735.0 
197.136017 285.0 
198.034821 218.0 
198.062576 3428.0 
199.039978 196.0 
199.069016 139.0 
199.680008 168.0 
202.071533 337.0 
203.571838 302.0 
204.096695 191.0 
205.063446 3262.0 
205.108444 176.0 
205.374542 203.0 
206.028854 280.0 
206.072723 1324.0 
207.078827 972.0 
208.053116 1223.0 
208.295425 92.0 
209.061295 358.0 
209.474182 234.0 
209.848129 265.0 
210.061951 146.0 
211.072403 466.0 
213.051254 161.0 
214.048889 168.0 
215.081833 662.0 
217.105957 206.0 
218.000824 317.0 
218.069565 320.0 
219.083176 561.0 
219.12175 215.0 
220.094757 316.0 
220.360184 106.0 
221.634933 102.0 
222.054596 342.0 
223.075073 26901.0 
223.131561 121.0 
223.779984 98.0 
224.078644 2464.0 
225.046509 76.0 
225.091827 516.0 
225.769272 88.0 
226.094818 144.0 
227.066864 227.0 
227.115829 392.0 
229.080093 143.0 
231.057983 152.0 
232.070007 249.0 
233.057434 828.0 
234.066849 632.0 
235.075333 4088.0 
236.073425 166.0 
237.09288 260.0 
237.947693 139.0 
238.587845 83.0 
239.068695 1059.0 
240.076782 425.0 
242.107361 134.0 
243.120102 186.0 
245.08728 189.0 
247.083099 96.0 
248.08609 199.0 
249.05719 344.0 
249.088165 202.0 
250.064224 133.0 
250.170975 97.0 
250.196304 130.0 
250.404633 90.0 
250.43364 196.0 
250.467743 189.0 
250.671997 72.0 
250.729034 175.0 
250.793732 413.0 
250.919113 332.0 
250.961456 190.0 
251.070557 225930.0 
251.148895 447.0 
251.194626 202.0 
251.617126 262.0 
251.673035 99.0 
251.747681 72.0 
251.920349 194.0 
252.073975 33094.0 
252.276901 67.0 
252.732452 213.0 
252.825745 137.0 
253.084442 4369.0 
253.155716 124.0 
253.501694 138.0 
253.560181 114.0 
253.772888 180.0 
253.91185 112.0 
253.948181 127.0 
254.088303 498.0 
255.115158 271.0 
256.110382 142.0 
260.080627 214.0 
261.08783 395.0 
262.100525 159.0 
263.023926 190.0 
263.104858 121.0 
263.229248 95.0 
264.618835 289.0 
264.918854 241.0 
265.086426 4230.0 
266.090607 498.0 
266.497009 192.0 
267.09082 82.0 
267.686859 98.0 
268.290039 146.0 
269.080963 17183.0 
270.085114 1539.0 
270.124969 255.0 
271.084198 236.0 
272.063507 138.0 
273.090637 305.0 
274.137177 276.0 
275.116577 520.0 
276.086884 406.0 
277.079285 197.0 
277.136169 142.0 
278.093658 128.0 
280.100372 396.0 
283.103271 420.0 
286.098053 187.0 
288.035919 132.0 
289.103363 332.0 
291.071198 104.0 
291.103729 995.0 
291.29599 149.0 
293.12265 122.0 
294.102478 152.0 
297.104523 76.0 
300.478821 131.0 
301.118744 109.0 
301.213013 220.0 
304.100372 227.0 
306.088257 169.0 
306.129211 449.0 
307.129181 829.0 
308.147034 520.0 
315.141907 319.0 
317.126434 140.0 
319.13559 1180.0 
320.096558 126.0 
329.179321 199.0 
332.147125 705.0 
333.144226 301.0 
333.181671 110.0 
337.15918 137.0 
339.165802 262.0 
357.129486 110.0 
357.189453 126.0 
357.2612 194.0 
358.18808 253.0 
374.572601 199.0 
375.197174 17916.0 
375.544647 84.0 
375.919678 147.0 
376.200409 2960.0 
378.143982 77.0 
384.613342 143.0 
393.209106 876.0 
394.214935 124.0 
921.943237 94.0 
976.926819 93.0 
1762.850586 104.0 
1778.344604 274.0 
1997.463379 258.0 
END IONS

BEGIN IONS
TITLE=Scan Number: 449
PEPMASS=1103.56006
CHARGE=1+
MSLEVEL=2
FILENAME=A4_GA4_01_2684.mzXML
INSTRUMENT=ion trap
SCANS=449
SMILES=CC1OC(OC2C(O)C(OC3CCC4(C)C(CCC5(C)C4CC=C6C7CC(C)(C)CCC7(CCC56C)C(=O)OC8OC(CO)C(O)C(O)C8O)C3(C)C)OC(C2O)C(O)=O)C(OC9OC(CO)C(O)C(O)C9O)C(O)C1O
INCHIKEY=UDPVBZZTXOCTNJ-UHFFFAOYSA-N
71.048431 472.0 
83.047302 629.0 
84.05088 216.0 
85.028687 4538.0 
87.75914 179.0 
92.325409 280.0 
95.08651 429.0 
96.021584 212.0 
97.029022 616.0 
99.041817 193.0 
101.061401 223.0 
109.099457 564.0 
111.009872 237.0 
111.044937 563.0 
115.036003 275.0 
119.083656 156.0 
121.1008 455.0 
123.115746 489.0 
127.039764 1310.0 
128.880173 137.0 
129.054413 3365.0 
130.05191 178.0 
131.030136 155.0 
131.203568 105.0 
133.095749 263.0 
135.040665 154.0 
135.113968 389.0 
139.033417 171.0 
141.019287 3274.0 
142.021423 535.0 
145.048538 2134.0 
145.1707 250.0 
146.054581 222.0 
147.066299 3680.0 
148.067627 229.0 
149.128754 722.0 
151.074905 175.0 
151.146149 213.0 
153.092316 254.0 
157.051407 142.0 
159.029694 1323.0 
161.138412 368.0 
163.038803 171.0 
163.062531 1671.0 
163.145218 289.0 
164.151245 148.0 
165.012207 122.0 
165.054413 147.0 
165.076416 191.0 
167.104523 149.0 
169.051285 524.0 
171.115936 110.0 
173.111801 226.0 
174.141907 158.0 
175.056671 145.0 
175.14679 106.0 
177.042877 477.0 
177.159622 223.0 
181.060791 163.0 
181.085083 157.0 
181.122849 166.0 
183.027069 102.0 
184.065262 240.0 
187.149155 159.0 
189.163086 1214.0 
190.164368 146.0 
191.180786 3817.0 
192.148911 172.0 
192.183533 196.0 
193.125427 157.0 
195.067688 371.0 
201.161942 1093.0 
201.31044 157.0 
201.40036 147.0 
202.044601 215.0 
202.7043 154.0 
202.982483 137.0 
203.181839 2880.0 
203.23056 149.0 
204.1754 236.0 
205.131531 203.0 
205.193939 1836.0 
206.201736 411.0 
209.198822 500.0 
215.181992 125.0 
217.161209 158.0 
217.184265 284.0 
218.066727 174.0 
219.137344 192.0 
219.174026 145.0 
221.873734 230.0 
222.171524 334.0 
223.010025 153.0 
225.082443 148.0 
227.176865 182.0 
227.437729 93.0 
229.155106 111.0 
229.191666 393.0 
231.056458 157.0 
231.089539 160.0 
235.181305 147.0 
237.07666 262.0 
241.050354 113.0 
241.073959 154.0 
241.19371 152.0 
243.091431 179.0 
243.193512 291.0 
245.230743 196.0 
247.167099 689.0 
248.168442 164.0 
249.189514 131.0 
251.053528 220.0 
255.055878 160.0 
255.092041 913.0 
255.207382 183.0 
257.234283 211.0 
259.172668 136.0 
269.181519 302.0 
273.040192 177.0 
273.099548 1919.0 
273.194763 135.0 
274.097443 162.0 
287.079895 544.0 
289.086273 164.0 
289.217621 108.0 
290.192383 169.0 
290.228607 155.0 
292.11911 153.0 
297.235657 160.0 
297.266418 144.0 
301.239899 152.0 
303.069275 97.0 
303.228607 225.0 
305.092468 762.0 
306.08783 129.0 
309.120728 2646.0 
310.129303 227.0 
321.080566 1761.0 
323.103485 2002.0 
324.102112 108.0 
328.485016 107.0 
329.235992 154.0 
332.864624 182.0 
335.592529 238.0 
339.099274 587.0 
349.096008 168.0 
370.148651 256.0 
375.159027 194.0 
382.233459 172.0 
393.355286 855.0 
394.350403 168.0 
410.1539 204.0 
411.371979 420.0 
418.162476 259.0 
421.363861 258.0 
422.364868 129.0 
431.121765 607.0 
432.132629 209.0 
435.141449 151.0 
436.149139 183.0 
439.102234 151.0 
439.360535 9169.0 
440.361938 2132.0 
443.134888 150.0 
449.12323 138.0 
450.13031 345.0 
455.372925 169.0 
467.079346 171.0 
467.150238 136.0 
485.15979 1132.0 
486.160461 133.0 
505.353119 110.0 
549.246704 101.0 
549.39209 120.0 
555.132324 119.0 
570.682861 220.0 
647.234741 181.0 
655.304504 191.0 
669.253723 142.0 
672.193359 234.0 
676.20343 83.0 
688.197998 111.0 
1047.294434 165.0 
1085.332886 79.0 
1102.73584 112.0 
END IONS

BEGIN IONS
TITLE=Scan Number: 450
PEPMASS=1120.58997
CHARGE=1+
MSLEVEL=2
FILENAME=A4_GA4_01_2684.mzXML
INSTRUMENT=ion trap
SCANS=450
SMILES=CC1OC(OC2C(O)C(OC3CCC4(C)C(CCC5(C)C4CC=C6C7CC(C)(C)CCC7(CCC56C)C(=O)OC8OC(CO)C(O)C(O)C8O)C3(C)C)OC(C2O)C(O)=O)C(OC9OC(CO)C(O)C(O)C9O)C(O)C1O
INCHIKEY=UDPVBZZTXOCTNJ-UHFFFAOYSA-N
71.049522 3075.0 
73.02755 103.0 
75.044449 107.0 
76.250008 227.0 
81.03405 325.0 
81.073044 193.0 
83.050278 960.0 
83.08326 190.0 
85.028244 9636.0 
86.030907 135.0 
87.032204 149.0 
91.039154 131.0 
95.050537 252.0 
95.08551 1251.0 
97.030235 869.0 
97.103722 294.0 
99.045021 577.0 
101.058403 116.0 
102.746246 105.0 
103.004173 188.0 
103.03849 853.0 
104.998718 254.0 
107.08606 554.0 
109.102814 842.0 
109.24884 105.0 
111.043777 2533.0 
111.120148 270.0 
112.045372 243.0 
113.022041 192.0 
115.042206 204.0 
115.99324 317.0 
119.088905 158.0 
120.085533 126.0 
121.104134 1074.0 
123.118446 951.0 
124.117889 418.0 
127.040482 1703.0 
128.719696 192.0 
129.055862 11013.0 
130.059021 485.0 
131.059998 159.0 
131.088486 180.0 
131.723572 274.0 
133.047867 134.0 
133.104767 365.0 
135.118683 2059.0 
137.134003 2230.0 
138.137695 195.0 
139.070801 148.0 
141.018661 443.0 
142.004013 136.0 
144.068436 162.0 
145.050705 3507.0 
146.085876 210.0 
147.031082 253.0 
147.065796 9181.0 
147.10022 252.0 
147.117523 704.0 
148.069672 440.0 
149.068848 211.0 
149.133667 2196.0 
150.097488 169.0 
150.136536 400.0 
153.085297 184.0 
157.049988 120.0 
158.689026 255.0 
159.030685 131.0 
159.116776 134.0 
159.336365 282.0 
160.127289 125.0 
161.132889 822.0 
162.076859 634.0 
163.06395 881.0 
163.148788 2246.0 
164.095474 504.0 
164.154892 180.0 
165.077011 563.0 
165.163223 128.0 
167.106995 169.0 
171.06662 281.0 
173.097046 144.0 
173.132416 136.0 
174.141388 166.0 
175.108643 224.0 
175.151108 1055.0 
177.056427 198.0 
177.139496 139.0 
177.164627 1523.0 
178.173065 419.0 
179.10881 251.0 
179.144775 144.0 
179.185333 135.0 
180.084274 158.0 
180.180206 165.0 
183.032059 218.0 
184.641693 164.0 
187.023972 136.0 
187.149963 158.0 
188.098938 139.0 
188.15152 213.0 
188.273285 262.0 
189.132889 183.0 
189.165741 2683.0 
190.167953 726.0 
191.17955 13438.0 
191.312073 195.0 
192.18486 2020.0 
192.338181 100.0 
192.49733 174.0 
193.113663 85.0 
193.165359 394.0 
194.12146 131.0 
195.044907 149.0 
196.781662 138.0 
199.05661 170.0 
199.652756 234.0 
201.167236 2541.0 
202.165619 158.0 
203.181458 8854.0 
203.95993 97.0 
204.182892 935.0 
204.741806 142.0 
205.062897 135.0 
205.196442 6352.0 
205.418991 116.0 
205.590561 151.0 
206.20137 467.0 
206.556 124.0 
207.136215 400.0 
207.176544 862.0 
212.485992 129.0 
213.081924 198.0 
213.167038 323.0 
214.541946 284.0 
215.179199 1009.0 
216.191193 188.0 
217.195267 1440.0 
218.197021 332.0 
219.064468 245.0 
219.176437 434.0 
221.167755 334.0 
221.190613 412.0 
223.174789 236.0 
225.074203 276.0 
227.178894 188.0 
228.186356 189.0 
229.073288 157.0 
229.203094 294.0 
231.085617 183.0 
231.177231 318.0 
231.214157 564.0 
235.167831 1788.0 
241.193832 509.0 
243.061401 224.0 
245.227936 800.0 
247.170425 4314.0 
248.169739 495.0 
249.03508 297.0 
249.186554 2967.0 
251.189743 229.0 
255.082397 340.0 
255.214447 413.0 
257.227264 211.0 
259.070587 160.0 
260.172943 206.0 
261.069336 158.0 
261.122894 98.0 
261.185791 2320.0 
262.183075 346.0 
263.19516 87.0 
269.067566 242.0 
269.223572 241.0 
272.252258 126.0 
273.097229 3917.0 
274.105347 562.0 
274.231995 82.0 
274.570709 103.0 
274.729767 83.0 
276.108002 105.0 
277.228699 101.0 
279.233307 136.0 
279.691528 197.0 
283.255768 156.0 
287.072906 621.0 
287.199768 189.0 
288.079376 189.0 
289.093506 202.0 
289.220703 896.0 
291.114868 337.0 
291.230347 193.0 
292.12851 321.0 
292.841309 191.0 
294.078003 103.0 
301.218292 165.0 
305.001099 160.0 
305.086792 943.0 
306.104767 209.0 
309.121643 7030.0 
310.130341 367.0 
311.114136 228.0 
313.898132 171.0 
315.243134 807.0 
321.087128 547.0 
323.097229 792.0 
324.397552 173.0 
325.10791 85.0 
327.145538 125.0 
327.231689 201.0 
332.267914 180.0 
337.125793 154.0 
337.299652 130.0 
337.547943 183.0 
339.089783 433.0 
341.114075 281.0 
341.253601 129.0 
342.137177 395.0 
343.289124 209.0 
344.272125 308.0 
347.084473 124.0 
350.298981 126.0 
351.308899 504.0 
354.463745 150.0 
356.235321 106.0 
357.109406 129.0 
376.836395 107.0 
392.98941 201.0 
393.294739 181.0 
393.355011 2950.0 
393.701965 210.0 
394.362518 713.0 
405.081482 163.0 
411.265411 103.0 
411.316467 141.0 
411.367401 1050.0 
412.349243 100.0 
419.667572 220.0 
421.359161 222.0 
422.337158 281.0 
424.201965 337.0 
425.349121 163.0 
427.572906 203.0 
429.020599 151.0 
434.160034 149.0 
435.15625 269.0 
435.36499 225.0 
437.303772 138.0 
437.34079 96.0 
437.964325 101.0 
438.261963 129.0 
439.002502 148.0 
439.157135 196.0 
439.236481 210.0 
439.361816 43026.0 
439.692413 92.0 
439.788422 155.0 
439.900757 77.0 
439.937592 134.0 
440.054626 139.0 
440.302917 349.0 
440.365448 12392.0 
440.595001 123.0 
441.373566 1444.0 
441.692413 83.0 
442.365784 175.0 
442.637451 148.0 
442.758698 123.0 
442.900543 92.0 
449.128296 344.0 
449.884949 209.0 
451.163269 243.0 
453.158752 105.0 
456.373535 122.0 
457.372345 302.0 
458.381958 144.0 
467.141266 160.0 
468.830109 166.0 
471.135895 352.0 
471.178833 1693.0 
485.116028 456.0 
488.200806 459.0 
489.220001 218.0 
493.169769 195.0 
494.381256 246.0 
501.142242 104.0 
503.174133 176.0 
505.382019 201.0 
519.391479 159.0 
531.37793 231.0 
549.399231 633.0 
550.399597 558.0 
567.414734 345.0 
568.413696 108.0 
569.388916 336.0 
583.393677 517.0 
584.397217 148.0 
585.420654 1024.0 
586.409241 204.0 
587.403992 977.0 
588.393555 830.0 
589.405518 205.0 
597.401184 86.0 
601.416565 292.0 
611.2052 153.0 
615.331848 126.0 
615.407349 84.0 
616.394043 335.0 
631.400513 116.0 
633.330994 201.0 
633.399353 298.0 
647.217041 470.0 
679.451782 95.0 
725.418823 127.0 
747.480896 90.0 
762.466797 306.0 
779.444214 145.0 
780.446838 116.0 
892.543091 214.0 
907.492554 241.0 
921.4729 110.0 
1086.63916 148.0 
1087.346436 146.0 
1120.421021 137.0 
1120.601196 4555.0 
1121.293091 197.0 
1121.603882 1466.0 
1122.104858 107.0 
1122.599731 184.0 
1123.357788 128.0 
1123.543213 206.0 
1126.527466 127.0 
1421.720337 108.0 
1504.728027 196.0 
1548.878784 111.0 
1821.516724 124.0 
END IONS

BEGIN IONS
TITLE=Scan Number: 451
PEPMASS=249.14799
CHARGE=1+
MSLEVEL=2
FILENAME=E11_RE11_01_2767.mzXML
INSTRUMENT=ion trap
SCANS=451
SMILES=C\C=C\CCC1=CC(O)=C2C(CO)C(C)OC2=C1
INCHIKEY=ZBSDHRYEWAUMGA-ONEGZZNKSA-N
79.058746 139.0 
86.507545 148.0 
90.651566 338.0 
91.054207 1297.0 
103.054276 180.0 
105.034584 179.0 
105.070503 681.0 
107.051361 520.0 
108.05397 178.0 
115.04937 165.0 
118.074478 183.0 
119.051514 148.0 
119.085678 114.0 
120.057549 188.0 
121.069092 389.0 
123.046196 395.0 
123.081398 115.0 
124.08638 135.0 
127.031448 192.0 
127.054214 177.0 
128.060181 323.0 
129.071259 180.0 
130.080154 150.0 
131.05188 162.0 
132.059937 359.0 
133.063782 1130.0 
135.045639 814.0 
135.082062 1438.0 
136.052551 645.0 
136.088257 181.0 
137.060333 538.0 
145.065186 1166.0 
146.018433 191.0 
146.075256 308.0 
147.04393 1668.0 
147.079849 438.0 
148.053085 143.0 
148.086578 162.0 
149.059448 285.0 
149.099228 187.0 
151.03569 138.0 
152.047974 192.0 
155.06749 167.0 
158.073181 226.0 
159.038162 123.0 
159.078339 309.0 
160.052704 968.0 
160.352127 83.0 
161.061386 1373.0 
162.068924 313.0 
163.075836 2204.0 
164.083405 791.0 
171.90686 118.0 
174.070541 568.0 
174.124847 159.0 
174.516281 100.0 
175.076675 4091.0 
175.693832 118.0 
176.082977 487.0 
185.088272 175.0 
187.076263 157.0 
187.110611 395.0 
191.106369 1827.0 
192.047363 450.0 
193.086838 2431.0 
194.09549 589.0 
201.056152 320.0 
203.146698 161.0 
205.123016 454.0 
207.073914 384.0 
211.005722 138.0 
219.141266 148.0 
231.139374 1021.0 
245.011856 133.0 
249.149643 573.0 
250.147369 315.0 
264.110321 165.0 
1105.442505 98.0 
1821.398071 234.0 
1826.385986 215.0 
END IONS

BEGIN IONS
TITLE=Scan Number: 454
PEPMASS=339.159
CHARGE=1+
MSLEVEL=2
FILENAME=E11_RE11_01_2767.mzXML
INSTRUMENT=ion trap
SCANS=454
SMILES=COC1=CC=C(C=C1)C(=O)\C=C\C2=CC(=C(O)C=C2O)C(C)(C)C=C
INCHIKEY=TZHSNGXLLUGMMD-DHZHZOJOSA-N
70.896736 131.0 
72.145622 287.0 
73.420631 226.0 
73.459084 367.0 
74.37751 232.0 
74.860275 254.0 
75.276649 252.0 
75.697983 259.0 
76.059654 297.0 
77.039665 248.0 
78.258629 230.0 
78.552696 265.0 
79.011497 58.0 
79.053146 357.0 
79.337273 281.0 
81.069214 645.0 
82.432564 215.0 
83.014297 227.0 
83.431137 118.0 
85.415199 171.0 
86.101051 108.0 
86.617325 180.0 
88.376358 183.0 
88.839386 245.0 
89.040009 72.0 
89.618629 254.0 
90.041901 156.0 
90.317398 140.0 
91.054359 445.0 
92.027557 188.0 
92.829376 149.0 
92.984535 204.0 
93.034103 245.0 
93.0541 170.0 
93.07045 242.0 
94.040749 382.0 
94.399406 191.0 
95.010719 246.0 
95.051163 358.0 
95.075378 242.0 
96.010574 339.0 
97.544769 213.0 
98.791138 222.0 
99.164734 200.0 
99.716789 301.0 
100.747932 295.0 
101.194984 146.0 
103.054832 1037.0 
104.05761 104.0 
105.029419 380.0 
105.045746 1616.0 
105.068916 1136.0 
106.046494 58.0 
106.578644 186.0 
107.019852 188.0 
107.049797 12005.0 
107.273537 162.0 
107.44416 70.0 
107.592125 69.0 
107.872391 252.0 
107.972534 172.0 
108.053566 1566.0 
108.993011 193.0 
109.050339 265.0 
109.101501 207.0 
109.996338 402.0 
111.045502 8356.0 
111.242035 116.0 
111.4217 254.0 
112.008492 164.0 
112.046837 331.0 
112.57563 295.0 
113.900436 82.0 
114.055862 271.0 
115.056198 955.0 
117.0336 421.0 
117.069206 292.0 
118.044044 221.0 
119.049927 2108.0 
119.083908 337.0 
120.053833 719.0 
120.476105 246.0 
120.496033 136.0 
120.821701 332.0 
120.87851 185.0 
121.029762 348759.0 
121.086082 355.0 
121.10701 547.0 
121.140305 131.0 
121.196213 86.0 
121.248909 101.0 
121.380646 124.0 
121.423363 138.0 
121.447723 95.0 
121.690796 128.0 
121.785866 122.0 
121.819275 108.0 
122.033966 23406.0 
122.068626 121.0 
122.51413 94.0 
122.692749 147.0 
122.881264 140.0 
122.981018 476.0 
123.044296 4083.0 
123.076019 568.0 
123.112617 102.0 
123.217133 152.0 
123.294662 142.0 
123.580635 110.0 
124.052383 428.0 
125.054291 506.0 
125.604935 115.0 
126.562042 190.0 
127.55336 171.0 
128.060745 315.0 
128.468445 58.0 
128.766861 53.0 
129.068344 167.0 
130.079865 222.0 
131.049576 1750.0 
131.085938 448.0 
131.197144 97.0 
131.510117 70.0 
132.038071 134.0 
132.058395 496.0 
132.090942 178.0 
132.135712 90.0 
132.48761 122.0 
133.029953 868.0 
133.067673 1174.0 
133.098785 158.0 
133.983673 87.0 
134.03537 3771.0 
134.732666 44.0 
135.044601 735.0 
135.078018 354.0 
135.282822 120.0 
136.050583 391.0 
137.062073 378.0 
137.095108 141.0 
138.029114 124.0 
141.022812 240.0 
141.069641 1133.0 
142.044769 161.0 
142.075912 435.0 
143.050751 186.0 
143.087631 1062.0 
144.055222 924.0 
144.10025 170.0 
144.250153 76.0 
145.066025 856.0 
145.103165 341.0 
145.232513 177.0 
146.104065 205.0 
146.757584 177.0 
146.887024 171.0 
147.045639 9739.0 
147.079834 889.0 
148.016205 347.0 
148.048111 1231.0 
148.08345 235.0 
148.536285 118.0 
148.990265 237.0 
149.060822 3114.0 
149.09346 123.0 
150.313034 83.0 
150.773499 211.0 
151.038589 795.0 
151.081818 291.0 
152.043137 195.0 
153.033188 114.0 
153.063126 1156.0 
154.082718 385.0 
155.050293 222.0 
155.088211 318.0 
156.088791 282.0 
156.321655 44.0 
157.06749 1401.0 
157.098022 345.0 
157.333481 135.0 
158.074097 308.0 
159.048401 1553.0 
159.083038 2913.0 
160.052353 1169.0 
160.083145 481.0 
161.059738 2220.0 
161.096741 463.0 
161.702652 196.0 
161.904602 61.0 
162.032211 3346.0 
162.062958 622.0 
162.934982 129.0 
162.994202 145.0 
163.037888 788.0 
163.076706 1245.0 
163.113968 140.0 
164.073959 198.0 
165.071991 302.0 
166.048004 209.0 
166.364609 177.0 
167.08049 496.0 
168.216171 192.0 
168.752014 237.0 
169.041443 122.0 
169.066849 1085.0 
169.108963 174.0 
170.071167 331.0 
171.043533 362.0 
171.076752 652.0 
171.120102 142.0 
171.158936 75.0 
172.055176 406.0 
172.088165 304.0 
173.058563 283.0 
173.095718 693.0 
174.033356 343.0 
174.067062 990.0 
174.106033 170.0 
175.042664 386.0 
175.075943 960.0 
175.114563 430.0 
175.199844 58.0 
175.364258 133.0 
175.482681 133.0 
175.587173 221.0 
176.058945 548.0 
176.088898 302.0 
176.472931 216.0 
176.815598 78.0 
177.05658 12015.0 
177.08876 287.0 
177.376923 258.0 
177.44101 131.0 
177.768448 99.0 
178.059937 1048.0 
179.083252 282.0 
179.31424 149.0 
180.058929 89.0 
180.684921 226.0 
181.047852 212.0 
181.069122 1386.0 
182.073105 1249.0 
182.941895 166.0 
183.082108 1333.0 
184.083725 333.0 
184.149048 84.0 
184.598099 187.0 
185.056107 637.0 
185.09964 397.0 
186.066513 312.0 
187.044769 116.0 
187.078186 5430.0 
187.119232 179.0 
187.523849 251.0 
187.612442 301.0 
187.844284 229.0 
188.048523 504.0 
188.083496 1965.0 
188.120895 191.0 
189.055649 2114.0 
189.092575 1084.0 
189.614304 169.0 
190.008438 93.0 
190.05777 618.0 
190.247925 255.0 
191.067703 200.0 
191.107712 5434.0 
192.108231 696.0 
193.064636 584.0 
193.121735 365.0 
193.166367 138.0 
193.373398 104.0 
194.075012 531.0 
195.08284 2085.0 
196.03685 179.0 
196.082123 461.0 
197.059555 1213.0 
197.150116 222.0 
197.625397 158.0 
198.06868 729.0 
198.996307 76.0 
199.079697 998.0 
199.118927 406.0 
199.693741 66.0 
200.044632 496.0 
200.082169 223.0 
200.804123 76.0 
201.048981 756.0 
201.089478 1039.0 
201.671555 130.0 
202.040634 236.0 
202.10228 1078.0 
203.074081 1071.0 
203.107239 2557.0 
204.047424 159.0 
204.111084 402.0 
205.08757 99.0 
205.121475 88.0 
206.091858 168.0 
207.049423 472.0 
207.085983 117.0 
208.081253 165.0 
209.063919 222.0 
209.09375 589.0 
210.067291 386.0 
210.737915 285.0 
211.073715 696.0 
212.04216 168.0 
212.08287 879.0 
213.05455 152.0 
213.090103 760.0 
214.062164 328.0 
214.097183 173.0 
214.967133 88.0 
215.072601 9547.0 
216.076202 1057.0 
216.592361 102.0 
217.090485 162.0 
217.122177 991.0 
218.078461 169.0 
219.103577 2379.0 
219.136688 1831.0 
220.061829 119.0 
220.093719 138.0 
220.141418 263.0 
221.064819 236.0 
221.118912 641.0 
222.069824 233.0 
222.113251 609.0 
223.075592 2368.0 
224.081619 748.0 
224.125504 341.0 
225.093811 1441.0 
226.057449 167.0 
227.015442 132.0 
227.068832 584.0 
227.105469 795.0 
228.216919 85.0 
229.001404 162.0 
229.087845 16413.0 
230.095444 3521.0 
231.014313 46.0 
231.076721 194.0 
231.101303 725.0 
232.091797 276.0 
236.077667 154.0 
236.766205 53.0 
236.985855 296.0 
237.129456 495.0 
239.037872 131.0 
239.071564 1610.0 
240.082947 137.0 
241.056824 329.0 
241.084885 1003.0 
241.125031 129.0 
242.090912 97.0 
245.074203 137.0 
245.120209 17735.0 
245.506714 97.0 
246.126236 1998.0 
247.081497 342.0 
248.073074 196.0 
249.056366 133.0 
250.059372 81.0 
250.108765 335.0 
251.069214 839.0 
251.764343 92.0 
252.077057 1170.0 
253.051498 114.0 
253.086685 3078.0 
254.089539 306.0 
255.067734 155.0 
255.103439 738.0 
256.07373 176.0 
256.102386 84.0 
259.224152 212.0 
260.080322 342.0 
261.09494 211.0 
262.059723 136.0 
262.098785 175.0 
262.139923 250.0 
263.075775 140.0 
264.112274 542.0 
265.052795 137.0 
265.088135 1378.0 
265.123047 654.0 
265.797363 133.0 
268.280182 291.0 
269.087952 299.0 
269.113647 195.0 
269.734222 111.0 
270.074951 58.0 
270.568024 177.0 
270.711639 94.0 
270.922119 194.0 
271.040558 726.0 
271.09787 36267.0 
271.145508 172.0 
271.681641 72.0 
271.739166 79.0 
271.97818 103.0 
272.103516 5117.0 
272.875641 150.0 
273.076782 213.0 
274.094574 386.0 
274.231293 92.0 
274.334503 79.0 
275.105408 456.0 
276.075043 418.0 
276.114563 159.0 
276.314148 258.0 
277.0896 714.0 
277.212494 128.0 
278.089722 500.0 
279.10141 256.0 
279.133423 118.0 
280.102509 166.0 
280.38559 163.0 
281.085144 177.0 
281.112823 109.0 
282.671295 260.0 
283.062012 389.0 
283.100189 4440.0 
283.226807 49.0 
284.094666 115.0 
284.176392 220.0 
285.095673 304.0 
289.12027 88.0 
290.128723 246.0 
291.101532 180.0 
292.10553 303.0 
293.117554 706.0 
294.119995 255.0 
295.095215 135.0 
296.104248 289.0 
296.637451 80.0 
296.867554 164.0 
297.060242 295.0 
297.151306 31580.0 
297.243774 106.0 
297.592316 114.0 
298.117157 583.0 
298.150574 4485.0 
298.831757 189.0 
306.121338 111.0 
307.102325 276.0 
307.134155 3250.0 
307.432373 90.0 
307.8573 48.0 
308.136353 264.0 
309.112366 1281.0 
310.124054 123.0 
311.125854 264.0 
311.166656 437.0 
321.164337 248.0 
324.14624 221.0 
324.311432 110.0 
337.034668 172.0 
337.52005 45.0 
337.608673 219.0 
337.675934 179.0 
338.076294 196.0 
338.251343 205.0 
338.373505 57.0 
338.472076 112.0 
338.547974 99.0 
338.632965 219.0 
338.736084 56.0 
338.875763 87.0 
338.908386 120.0 
338.995209 247.0 
339.095062 1047.0 
339.16153 123501.0 
339.321747 88.0 
339.602173 114.0 
339.637238 110.0 
339.771698 88.0 
340.090271 201.0 
340.166748 16499.0 
340.285614 59.0 
340.643311 109.0 
340.888153 110.0 
340.988129 71.0 
341.049133 61.0 
341.693726 57.0 
342.158539 51.0 
342.260284 106.0 
342.701447 103.0 
342.812561 53.0 
343.544189 113.0 
360.4664 83.0 
382.657318 91.0 
391.123779 48.0 
506.218292 80.0 
513.7229 59.0 
587.403137 160.0 
661.637634 57.0 
700.917114 77.0 
1059.800903 138.0 
1288.547119 314.0 
1316.320557 311.0 
1415.444092 135.0 
1441.664673 184.0 
1588.872192 314.0 
1641.31604 225.0 
1732.35083 192.0 
1738.390747 232.0 
1787.600586 283.0 
1804.037476 100.0 
1823.567383 256.0 
1833.286133 69.0 
1845.455933 194.0 
1906.996704 99.0 
1942.560425 225.0 
1951.468262 284.0 
1969.580078 277.0 
1976.657593 363.0 
END IONS

BEGIN IONS
TITLE=Scan Number: 463
PEPMASS=282.17001
CHARGE=1+
MSLEVEL=2
FILENAME=C10_GC10_01_2805.mzXML
INSTRUMENT=ion trap
SCANS=463
SMILES=CC1CC(C)C(=O)C(C1)C2CC(CC(N)=O)CC(=O)O2
INCHIKEY=SAVFIMRLAWCZGX-UHFFFAOYSA-N
79.051949 414.0 
79.688011 139.0 
81.033234 210.0 
82.572357 156.0 
83.049194 435.0 
84.044685 294.0 
85.031921 214.0 
88.094643 336.0 
91.05336 667.0 
92.058517 173.0 
93.03495 167.0 
93.071602 533.0 
95.019714 120.0 
95.049736 570.0 
95.085724 967.0 
96.045952 164.0 
96.084648 364.0 
98.032814 242.0 
103.05423 202.0 
104.05851 176.0 
105.036415 370.0 
105.072861 1683.0 
107.049095 1321.0 
107.085548 967.0 
108.060898 562.0 
108.088333 142.0 
110.052917 100.0 
113.02327 141.0 
115.057816 437.0 
116.055428 157.0 
117.069366 1163.0 
119.08625 1512.0 
121.062698 934.0 
121.096024 465.0 
122.069885 234.0 
123.046661 176.0 
123.081474 5048.0 
123.113342 113.0 
124.067162 149.0 
124.097412 171.0 
125.090187 325.0 
127.957581 204.0 
128.064514 242.0 
129.070404 872.0 
130.079773 307.0 
131.039703 161.0 
131.085587 1396.0 
132.088821 237.0 
133.071808 273.0 
134.077103 471.0 
135.081528 562.0 
135.117508 129.0 
137.097656 318.0 
138.991104 118.0 
141.040268 130.0 
141.069534 333.0 
142.077393 1401.0 
143.08403 825.0 
143.497284 191.0 
144.092468 638.0 
145.062515 646.0 
145.101028 813.0 
147.084702 277.0 
149.054428 446.0 
149.098175 464.0 
150.118759 250.0 
151.074631 130.0 
151.112961 242.0 
152.12854 245.0 
153.048462 417.0 
153.076279 726.0 
154.079941 399.0 
155.057114 198.0 
156.09227 359.0 
156.463577 203.0 
157.102814 3746.0 
157.707489 236.0 
159.092346 184.0 
159.117523 2703.0 
160.121384 623.0 
161.094696 126.0 
161.136551 261.0 
162.099121 526.0 
162.971542 129.0 
163.112854 1365.0 
165.06076 167.0 
166.075882 236.0 
166.098724 227.0 
167.155487 711.0 
167.942734 270.0 
168.090149 257.0 
168.139435 182.0 
169.048386 183.0 
169.100815 713.0 
170.073166 154.0 
170.105499 435.0 
171.081955 166.0 
172.072647 108.0 
173.095184 433.0 
173.132324 1436.0 
174.125732 211.0 
174.157791 225.0 
175.114731 696.0 
175.145294 161.0 
177.093063 451.0 
177.131165 704.0 
179.061478 190.0 
179.108978 414.0 
180.160507 182.0 
181.06218 171.0 
182.376862 265.0 
183.119354 1071.0 
184.1185 372.0 
185.096603 3056.0 
185.131195 184.0 
186.101974 203.0 
187.071365 192.0 
187.113251 4065.0 
187.612152 156.0 
188.117294 925.0 
189.100891 252.0 
189.130997 180.0 
190.09697 152.0 
191.144897 417.0 
194.166321 171.0 
195.083206 138.0 
195.185806 107.0 
197.117432 214.0 
201.126312 1633.0 
202.129623 202.0 
203.111176 174.0 
203.141357 109.0 
204.141037 418.0 
205.123642 3113.0 
206.123169 344.0 
208.135757 145.0 
211.121582 311.0 
219.137619 2064.0 
220.124207 204.0 
222.140594 260.0 
223.138962 125.0 
228.038559 159.0 
228.139069 253.0 
229.125366 3759.0 
230.125381 589.0 
232.109543 187.0 
234.120468 156.0 
237.116898 233.0 
237.149979 330.0 
238.128372 147.0 
246.150894 1683.0 
247.132462 7025.0 
248.139359 413.0 
249.7621 135.0 
264.159485 1666.0 
265.146088 2408.0 
281.221924 508.0 
282.172241 154.0 
282.221436 247.0 
527.506165 91.0 
1168.364746 120.0 
1759.194214 175.0 
1797.05896 238.0 
END IONS

BEGIN IONS
TITLE=Scan Number: 464
PEPMASS=299.19699
CHARGE=1+
MSLEVEL=2
FILENAME=C10_GC10_01_2805.mzXML
INSTRUMENT=ion trap
SCANS=464
SMILES=CC1CC(C)C(=O)C(C1)C2CC(CC(N)=O)CC(=O)O2
INCHIKEY=SAVFIMRLAWCZGX-UHFFFAOYSA-N
77.254547 220.0 
79.05719 764.0 
81.036514 145.0 
81.058708 177.0 
81.071152 198.0 
83.048233 174.0 
83.087166 358.0 
84.039673 161.0 
91.056099 1214.0 
92.05751 127.0 
93.034698 122.0 
93.071884 2151.0 
94.042236 164.0 
95.014366 192.0 
95.051712 399.0 
95.085815 813.0 
96.044258 421.0 
96.072731 288.0 
97.027039 192.0 
97.066689 397.0 
98.063416 176.0 
103.05201 100.0 
105.045296 221.0 
105.069 1620.0 
106.050735 149.0 
107.049942 1691.0 
107.086899 1399.0 
108.057564 411.0 
109.021713 184.0 
109.10289 844.0 
110.058662 143.0 
110.096161 167.0 
111.080872 309.0 
111.55764 162.0 
112.039986 370.0 
113.294304 234.0 
113.833549 283.0 
115.057793 213.0 
117.070633 565.0 
118.711113 136.0 
119.049911 289.0 
119.085587 1639.0 
120.090202 160.0 
121.030586 1042.0 
121.065132 2288.0 
121.101776 1300.0 
121.253815 96.0 
122.063316 1491.0 
122.106224 206.0 
123.047691 559.0 
123.082207 1002.0 
123.1157 550.0 
125.097351 889.0 
126.054619 590.0 
126.096336 296.0 
127.321434 209.0 
128.066238 146.0 
129.070786 1291.0 
131.085373 2342.0 
132.090714 418.0 
133.084976 235.0 
133.101898 504.0 
134.068878 230.0 
135.043671 365.0 
135.084686 756.0 
135.117599 397.0 
135.261765 189.0 
135.329483 219.0 
136.075943 358.0 
137.093933 187.0 
137.217331 223.0 
138.05278 917.0 
139.0392 184.0 
140.070724 817.0 
141.062363 337.0 
142.0784 455.0 
143.084885 2027.0 
144.095184 1008.0 
145.062897 575.0 
145.101974 1037.0 
146.035751 255.0 
146.066956 194.0 
146.105118 146.0 
147.078003 205.0 
147.198151 309.0 
147.392731 222.0 
147.565887 181.0 
148.085205 179.0 
149.096542 464.0 
149.132401 1231.0 
150.055618 206.0 
150.091629 334.0 
150.136597 198.0 
151.080429 121.0 
151.109482 504.0 
153.054413 187.0 
154.080856 186.0 
155.085144 395.0 
156.09816 340.0 
157.068192 329.0 
157.102097 1678.0 
158.07048 258.0 
158.112518 302.0 
159.080719 709.0 
159.118469 4572.0 
160.096649 450.0 
161.003967 141.0 
161.09613 577.0 
161.134201 375.0 
163.07515 403.0 
163.116394 887.0 
164.115768 223.0 
165.065582 187.0 
165.094574 258.0 
166.088486 573.0 
166.171783 173.0 
167.060074 192.0 
167.115417 128.0 
168.067886 824.0 
168.091843 733.0 
169.100372 983.0 
170.090408 209.0 
171.106216 288.0 
172.090485 339.0 
173.100174 598.0 
173.132278 1087.0 
173.211517 175.0 
174.138382 209.0 
175.112701 1451.0 
177.090775 299.0 
177.128952 1710.0 
178.087219 250.0 
180.077896 187.0 
180.097351 264.0 
182.115555 106.0 
183.119339 583.0 
185.095032 277.0 
186.111908 198.0 
187.114746 3259.0 
187.736847 122.0 
188.096985 249.0 
188.116928 425.0 
189.093155 206.0 
191.069153 164.0 
191.1418 330.0 
192.111145 361.0 
193.09761 125.0 
193.143875 155.0 
194.117722 123.0 
195.08812 168.0 
200.141357 271.0 
201.127731 2054.0 
202.135361 189.0 
203.106857 369.0 
203.142075 341.0 
204.149689 151.0 
205.124985 956.0 
205.196564 397.0 
206.120758 470.0 
211.112701 767.0 
212.119492 370.0 
212.146942 235.0 
218.127182 239.0 
218.154358 1029.0 
219.140152 3237.0 
220.132919 947.0 
221.009857 220.0 
222.149963 169.0 
226.843216 280.0 
228.125046 331.0 
229.127487 2136.0 
230.130753 413.0 
231.130295 269.0 
236.167267 521.0 
237.156403 613.0 
245.25946 128.0 
245.42244 174.0 
246.150024 12009.0 
247.135544 7761.0 
247.570374 93.0 
247.974304 228.0 
248.137436 345.0 
262.637299 177.0 
263.734772 155.0 
263.978729 152.0 
264.161438 10411.0 
264.489532 150.0 
265.153961 4159.0 
265.425842 106.0 
266.144348 328.0 
266.921814 119.0 
268.685089 111.0 
281.176636 131.0 
282.173462 4192.0 
283.177216 531.0 
1686.804688 229.0 
1694.75647 328.0 
END IONS

BEGIN IONS
TITLE=Scan Number: 465
PEPMASS=326.21799
CHARGE=1+
MSLEVEL=2
FILENAME=C10_GC10_01_2805.mzXML
INSTRUMENT=ion trap
SCANS=465
SMILES=CC(C)CCC(O)CCO[C@@H]1O[C@H](CO)[C@@H](O)[C@H](O)[C@H]1O
INCHIKEY=KSQUXZFVIOCIHF-MXNNCRBYSA-N
81.035606 196.0 
83.085922 1319.0 
85.024315 185.0 
99.032906 171.0 
99.0466 232.0 
111.118332 1200.0 
112.121246 321.0 
114.056671 339.0 
121.031746 124.0 
127.041084 263.0 
129.12883 3338.0 
145.050949 514.0 
147.138947 1250.0 
186.99585 122.0 
248.006058 217.0 
257.093292 345.0 
268.112854 283.0 
327.175232 133.0 
1286.272583 247.0 
END IONS

BEGIN IONS
TITLE=Scan Number: 466
PEPMASS=480.24399
CHARGE=1+
MSLEVEL=2
FILENAME=C10_GC10_01_2805.mzXML
INSTRUMENT=ion trap
SCANS=466
SMILES=CC1=C(C(=O)OC2OC(COC3OCC(O)C(O)C3O)C(O)C(O)C2O)C(C)(C)CCC1
INCHIKEY=JGMROMZJBQKIDK-UHFFFAOYSA-N
71.012634 222.0 
72.038727 223.0 
72.18177 152.0 
73.029068 4443.0 
74.030052 144.0 
79.0224 147.0 
81.070213 1281.0 
82.07592 181.0 
82.097618 179.0 
82.285843 205.0 
83.051743 410.0 
85.028625 4559.0 
86.032791 192.0 
86.846283 120.0 
87.007927 168.0 
87.046288 147.0 
88.592491 126.0 
91.037964 157.0 
93.714729 171.0 
95.085648 842.0 
97.029419 5717.0 
98.033836 468.0 
98.059311 178.0 
99.042885 307.0 
103.037788 161.0 
107.090179 372.0 
108.040291 204.0 
109.0289 609.0 
109.102959 532.0 
109.685669 250.0 
110.973175 145.0 
111.083115 194.0 
115.039749 3088.0 
116.98172 128.0 
122.563492 150.0 
123.080276 200.0 
123.117699 12238.0 
124.122208 764.0 
125.094406 297.0 
125.12587 224.0 
126.735893 210.0 
127.040993 1510.0 
127.066139 179.0 
127.083992 185.0 
131.179276 127.0 
133.048523 1449.0 
133.098038 295.0 
134.052048 217.0 
135.081955 591.0 
136.085281 137.0 
138.862534 292.0 
143.000671 341.0 
144.065903 835.0 
145.04982 2227.0 
150.080307 342.0 
151.112747 26309.0 
152.116638 1832.0 
152.787827 96.0 
153.093079 2280.0 
155.16272 105.0 
156.066986 246.0 
157.048462 404.0 
158.999374 578.0 
162.076797 714.0 
163.062546 751.0 
164.224213 102.0 
168.915802 192.0 
169.123276 15596.0 
170.126511 1298.0 
171.001541 126.0 
171.397141 94.0 
171.49794 113.0 
171.769257 98.0 
172.001144 236.0 
177.012283 170.0 
178.000565 168.0 
179.019501 118.0 
180.085114 506.0 
181.048203 172.0 
181.094315 192.0 
185.007828 153.0 
187.063965 176.0 
187.131775 105.0 
189.205399 283.0 
189.326706 161.0 
193.04921 789.0 
199.062271 111.0 
201.010605 208.0 
205.040909 294.0 
205.196533 131.0 
207.017151 313.0 
211.062912 249.0 
213.099564 218.0 
215.023651 178.0 
217.077072 509.0 
218.123306 313.0 
219.016251 691.0 
223.062607 425.0 
224.059265 254.0 
225.00531 175.0 
237.020126 207.0 
241.071793 985.0 
242.079987 181.0 
243.08963 105.0 
259.081482 464.0 
261.101807 535.0 
263.188812 155.0 
276.11084 566.0 
277.11618 193.0 
283.159149 284.0 
294.118011 820.0 
295.102966 624.0 
303.107666 125.0 
309.052429 193.0 
312.135559 747.0 
313.163696 144.0 
333.055786 123.0 
336.180023 195.0 
351.071838 161.0 
351.107422 181.0 
362.247772 182.0 
417.14621 106.0 
480.247559 355.0 
480.338654 85.0 
481.300537 155.0 
482.228882 96.0 
501.161255 301.0 
1304.541626 203.0 
1832.750244 206.0 
1985.350342 337.0 
END IONS

BEGIN IONS
TITLE=Scan Number: 467
PEPMASS=513.35699
CHARGE=1+
MSLEVEL=2
FILENAME=C10_GC10_01_2805.mzXML
INSTRUMENT=ion trap
SCANS=467
SMILES=CCCCCCCCCCCC(=O)OC12CC(C)C3(O)C4C=C(C)C(=O)C4(O)CC(CO)=CC3C1C2(C)C
INCHIKEY=XREDRJVZJRMVHB-UHFFFAOYSA-N
70.075203 239.0 
79.056808 491.0 
81.071869 385.0 
83.010994 164.0 
83.08342 366.0 
91.053108 731.0 
91.109825 136.0 
92.822754 328.0 
93.036819 249.0 
93.071442 825.0 
94.279594 129.0 
95.048607 221.0 
95.087418 1032.0 
96.71492 259.0 
97.029396 129.0 
99.80262 395.0 
100.041832 194.0 
100.465591 128.0 
105.033546 214.0 
105.070503 2024.0 
106.073082 132.0 
107.051369 216.0 
107.086342 885.0 
108.053314 292.0 
109.028625 293.0 
109.063713 363.0 
109.098366 196.0 
109.832428 211.0 
113.694557 207.0 
116.060822 143.0 
116.767967 255.0 
117.069725 516.0 
119.057503 250.0 
119.08786 1056.0 
120.101837 206.0 
121.0653 1072.0 
121.101463 896.0 
121.235321 255.0 
122.637726 249.0 
123.042969 570.0 
123.077736 198.0 
123.117081 160.0 
125.064911 429.0 
125.097084 179.0 
128.064865 345.0 
129.070999 1312.0 
130.075653 635.0 
131.086441 1780.0 
132.09198 419.0 
133.065369 1246.0 
133.102524 387.0 
134.068787 224.0 
134.108551 222.0 
135.08046 918.0 
135.119308 295.0 
138.677017 124.0 
141.069824 714.0 
142.079971 2093.0 
143.053268 217.0 
143.085449 4024.0 
144.090698 830.0 
144.906174 140.0 
145.065536 2109.0 
145.101593 1737.0 
145.148087 187.0 
146.072556 168.0 
146.105331 183.0 
147.079773 869.0 
147.418991 109.0 
148.096832 219.0 
149.101913 398.0 
151.042099 208.0 
151.078735 325.0 
152.750717 175.0 
153.070053 329.0 
153.095947 182.0 
154.072876 320.0 
155.053955 133.0 
155.086472 4213.0 
156.063354 213.0 
156.093552 1335.0 
157.069855 516.0 
157.10228 3622.0 
157.522507 318.0 
158.07251 470.0 
158.110031 677.0 
159.085556 983.0 
159.118286 1309.0 
160.087341 754.0 
160.123413 240.0 
161.061127 2098.0 
161.097778 459.0 
162.062851 169.0 
162.080292 250.0 
163.075851 1834.0 
165.068863 971.0 
165.790405 93.0 
166.077835 181.0 
167.087158 3846.0 
168.059814 141.0 
168.094147 1572.0 
168.174744 102.0 
168.43338 101.0 
169.070541 516.0 
169.100739 4420.0 
169.17189 101.0 
169.389511 180.0 
169.447464 160.0 
169.486099 154.0 
170.069504 729.0 
170.110245 1963.0 
171.047363 175.0 
171.079742 2167.0 
171.117462 3130.0 
171.155701 106.0 
172.078201 645.0 
172.126373 236.0 
173.097046 2332.0 
173.133575 292.0 
174.06842 193.0 
174.097565 342.0 
175.08403 632.0 
175.138123 129.0 
175.554092 112.0 
178.05014 169.0 
178.077866 524.0 
179.087509 1669.0 
180.094131 1130.0 
180.992569 244.0 
181.061295 337.0 
181.099762 5133.0 
182.035339 122.0 
182.072632 733.0 
182.110641 1799.0 
182.445389 108.0 
183.081818 1933.0 
183.118607 5652.0 
183.747742 228.0 
183.844589 118.0 
184.087219 332.0 
184.124374 1405.0 
185.097595 1712.0 
185.134094 2270.0 
185.395416 108.0 
186.137756 627.0 
187.078369 1216.0 
187.112747 854.0 
187.143188 207.0 
187.928696 103.0 
188.080704 172.0 
188.11676 503.0 
189.09024 491.0 
190.159363 198.0 
191.084229 586.0 
192.092316 2912.0 
193.100708 5042.0 
194.035889 392.0 
194.07486 850.0 
194.107758 2498.0 
195.081818 3840.0 
195.117203 4616.0 
196.089493 1883.0 
196.122742 1692.0 
196.961411 215.0 
197.097839 4659.0 
197.133804 4887.0 
197.453735 146.0 
198.102707 1315.0 
198.13765 1328.0 
199.073059 477.0 
199.111511 1928.0 
199.149353 435.0 
199.625763 109.0 
200.093033 445.0 
200.119965 433.0 
201.064346 123.0 
201.092804 1435.0 
201.130142 262.0 
202.07193 170.0 
202.134903 107.0 
203.095978 637.0 
203.143677 456.0 
204.06012 100.0 
204.093689 790.0 
205.09903 1079.0 
206.073837 421.0 
206.110474 1213.0 
206.223083 210.0 
206.445923 115.0 
206.616394 89.0 
207.078369 784.0 
207.11734 6700.0 
208.089035 1901.0 
208.122437 1543.0 
209.09613 7838.0 
209.131897 2781.0 
210.104156 4386.0 
210.141556 386.0 
210.622437 156.0 
210.901077 190.0 
210.929611 128.0 
211.077499 1103.0 
211.111572 8027.0 
211.151108 925.0 
212.082275 589.0 
212.115631 2375.0 
212.161301 212.0 
212.218445 153.0 
213.0896 497.0 
213.128372 1484.0 
214.094559 572.0 
214.476471 87.0 
215.10498 233.0 
215.148087 898.0 
216.089966 246.0 
216.151215 261.0 
217.095383 486.0 
218.104248 797.0 
218.859833 336.0 
219.083755 405.0 
219.115662 3180.0 
220.089951 737.0 
220.125671 1356.0 
221.087585 1163.0 
221.13385 1519.0 
221.775696 159.0 
221.898071 132.0 
222.106415 2672.0 
222.142578 150.0 
222.87645 86.0 
223.082535 596.0 
223.112289 4316.0 
223.147751 1022.0 
224.083344 1236.0 
224.120285 2868.0 
224.157471 1558.0 
225.090668 3273.0 
225.128189 7496.0 
225.164703 1937.0 
226.093674 896.0 
226.134064 1944.0 
227.107025 3016.0 
227.148895 226.0 
228.10733 302.0 
228.153259 197.0 
229.100189 562.0 
230.050995 152.0 
230.108994 178.0 
231.11261 693.0 
231.150986 543.0 
231.222076 89.0 
232.087906 359.0 
232.124557 155.0 
233.103912 622.0 
233.131134 670.0 
234.106781 1023.0 
234.13916 1952.0 
234.301331 167.0 
234.688278 137.0 
235.071915 178.0 
235.113434 3138.0 
235.147476 1727.0 
236.118378 2545.0 
236.155685 138.0 
237.06633 151.0 
237.095535 853.0 
237.128433 4335.0 
237.165039 4622.0 
237.473816 302.0 
238.063751 299.0 
238.101959 802.0 
238.134216 2581.0 
238.164917 494.0 
238.680649 146.0 
239.106903 3133.0 
239.140442 1698.0 
239.179947 6067.0 
239.216721 219.0 
239.728775 159.0 
240.115295 801.0 
240.143753 402.0 
240.181686 938.0 
241.126328 625.0 
242.030853 111.0 
242.122147 140.0 
242.750824 208.0 
243.13501 101.0 
243.164261 165.0 
244.122116 901.0 
245.127899 442.0 
246.138229 148.0 
247.018753 179.0 
247.053619 394.0 
247.112503 4461.0 
247.149887 321.0 
248.083267 117.0 
248.120392 1586.0 
248.632538 181.0 
248.955109 399.0 
249.097305 194.0 
249.13063 1462.0 
249.164078 3746.0 
250.137543 1047.0 
250.168457 1171.0 
251.111435 1237.0 
251.140335 1112.0 
251.499283 135.0 
251.651855 126.0 
252.02948 171.0 
252.081314 398.0 
252.113312 1030.0 
252.151962 2662.0 
252.915573 91.0 
253.125397 5062.0 
253.160004 3162.0 
253.886795 172.0 
254.119247 511.0 
254.161819 792.0 
255.133347 322.0 
255.179428 851.0 
256.109955 407.0 
256.176483 158.0 
256.911621 107.0 
257.134918 224.0 
259.147339 346.0 
260.146973 307.0 
261.133484 924.0 
262.135345 3578.0 
263.142242 911.0 
264.152222 925.0 
265.1297 919.0 
265.160034 5884.0 
265.646179 129.0 
266.128326 436.0 
266.158081 657.0 
266.749664 170.0 
267.129578 672.0 
267.175385 17207.0 
268.048218 248.0 
268.181305 2836.0 
269.156555 247.0 
270.160034 160.0 
271.127777 1821.0 
271.166901 593.0 
272.122406 176.0 
277.083618 146.0 
277.160217 10977.0 
278.112305 96.0 
278.164093 2641.0 
279.132324 439.0 
280.147949 1444.0 
280.207642 86.0 
282.149384 483.0 
283.125488 195.0 
283.170349 1018.0 
284.134888 295.0 
285.18454 5904.0 
286.141296 86.0 
286.189056 843.0 
292.28244 131.0 
293.153107 139.0 
294.790436 177.0 
295.170288 76663.0 
295.393219 191.0 
295.765961 109.0 
295.901276 101.0 
296.17453 13017.0 
297.171692 474.0 
298.152893 309.0 
298.229889 171.0 
298.406952 77.0 
312.792847 141.0 
313.034576 107.0 
313.18161 7254.0 
313.332336 146.0 
314.188171 891.0 
314.572906 98.0 
317.201691 100.0 
331.189972 117.0 
436.735779 119.0 
453.29245 129.0 
465.329926 143.0 
495.35257 159.0 
512.478638 274.0 
513.316162 346.0 
514.384949 135.0 
514.475464 169.0 
515.380676 352.0 
1851.08252 112.0 
1881.997681 241.0 
END IONS

BEGIN IONS
TITLE=Scan Number: 468
PEPMASS=1151.55005
CHARGE=1+
MSLEVEL=2
FILENAME=C10_GC10_01_2805.mzXML
INSTRUMENT=ion trap
SCANS=468
SMILES=C[C@@H]1O[C@@H](O[C@@H]2[C@@H](CO)O[C@@H](OC[C@H]3O[C@@H](OC(=O)C45CCC6(C)C(=CCC7C8(C)CC(O)C(O)C(C)(C8CCC67C)C(O)=O)C4CC(C)(C)CC5O)[C@H](O[C@@H]9O[C@H](CO)[C@@H](O)[C@H](O)[C@H]9O)[C@@H](O)[C@@H]3O)[C@H](O)[C@H]2O)[C@H](O)[C@H](O)[C@H]1O
INCHIKEY=OUZBWJQQLMMOSN-GQIQXOTMSA-N
71.050789 9910.0 
71.080322 225.0 
72.012032 226.0 
72.052963 595.0 
73.017815 421.0 
73.027992 510.0 
73.054886 243.0 
75.044479 1587.0 
76.043221 164.0 
76.731995 192.0 
79.352234 315.0 
81.034966 380.0 
81.069252 206.0 
82.036774 236.0 
83.022018 203.0 
83.050293 4014.0 
83.972717 100.0 
84.189262 192.0 
84.697472 175.0 
84.868965 106.0 
85.00444 255.0 
85.029106 40407.0 
85.065804 186.0 
85.087212 209.0 
86.032257 2057.0 
86.62516 129.0 
87.042244 1378.0 
89.943283 166.0 
91.039612 2545.0 
92.045975 296.0 
95.013367 123.0 
95.086548 948.0 
96.089111 179.0 
96.752777 118.0 
97.006721 354.0 
97.030365 4333.0 
97.152924 128.0 
97.700256 210.0 
98.033684 267.0 
98.077339 176.0 
99.046799 1480.0 
101.028694 416.0 
101.056755 1274.0 
103.039207 1721.0 
105.072876 764.0 
107.083755 353.0 
107.862419 337.0 
109.029572 2017.0 
109.100319 708.0 
110.030228 195.0 
111.044937 8165.0 
111.079041 419.0 
111.112556 121.0 
111.637321 249.0 
115.040215 847.0 
116.042458 316.0 
117.045052 178.0 
117.069412 169.0 
119.085693 1027.0 
121.063919 852.0 
121.101639 422.0 
123.083878 238.0 
123.11924 213.0 
125.022896 485.0 
126.984711 264.0 
127.04007 16882.0 
127.466522 118.0 
128.012177 102.0 
128.041306 1182.0 
128.67746 166.0 
129.055328 49391.0 
129.264084 111.0 
129.761261 147.0 
130.058868 4035.0 
131.065292 704.0 
131.0914 728.0 
131.176224 120.0 
131.199905 127.0 
132.089142 156.0 
132.183456 286.0 
133.05336 227.0 
133.099655 611.0 
134.969864 130.0 
135.044785 166.0 
135.081848 669.0 
135.118423 329.0 
135.717346 108.0 
136.118256 227.0 
136.468628 117.0 
137.134811 492.0 
139.077805 274.0 
139.721619 281.0 
143.085922 218.0 
143.892151 130.0 
145.05069 36926.0 
145.102066 1360.0 
145.305527 180.0 
145.362 202.0 
145.895721 200.0 
146.054428 1934.0 
146.308929 171.0 
146.600388 116.0 
146.690536 123.0 
146.737839 238.0 
146.987823 422.0 
147.030075 439.0 
147.066208 61086.0 
147.119278 331.0 
147.172089 174.0 
147.467041 81.0 
147.628174 144.0 
147.804153 213.0 
148.070389 3012.0 
148.120926 155.0 
149.067368 455.0 
149.101013 324.0 
149.133591 915.0 
149.305222 165.0 
150.139938 287.0 
151.044037 711.0 
151.876999 106.0 
153.052368 307.0 
153.091904 194.0 
156.08577 187.0 
156.693924 155.0 
157.048874 247.0 
157.101944 477.0 
158.109802 222.0 
159.076019 287.0 
159.117493 1315.0 
160.120636 226.0 
160.156891 109.0 
160.623795 166.0 
161.096512 540.0 
161.132492 665.0 
163.034912 644.0 
163.061386 20251.0 
163.110214 820.0 
163.148834 1447.0 
163.305923 251.0 
164.06073 657.0 
164.151459 389.0 
165.028259 262.0 
165.077667 2415.0 
165.122055 176.0 
169.05159 1166.0 
169.101273 150.0 
171.066528 1675.0 
171.121231 630.0 
172.118286 219.0 
173.043686 182.0 
173.1035 232.0 
173.133499 1223.0 
174.142105 747.0 
175.113693 241.0 
175.151138 2046.0 
175.736252 172.0 
176.249512 116.0 
177.051636 273.0 
177.129135 393.0 
177.164902 1613.0 
178.065109 173.0 
178.34877 209.0 
179.06311 1117.0 
179.141693 540.0 
179.662872 111.0 
181.067139 362.0 
181.159103 142.0 
185.131485 1148.0 
186.140213 382.0 
187.116989 402.0 
187.150696 8412.0 
188.123459 116.0 
188.151962 717.0 
189.052399 230.0 
189.130295 1677.0 
189.162018 2068.0 
190.081589 183.0 
190.164429 196.0 
190.979309 171.0 
191.056519 426.0 
191.142792 2477.0 
191.184662 291.0 
192.148026 182.0 
192.752563 322.0 
193.053268 338.0 
193.12001 376.0 
193.157928 426.0 
194.050049 265.0 
194.132095 229.0 
194.159988 216.0 
195.064697 1036.0 
196.793945 163.0 
197.075455 155.0 
199.062683 629.0 
199.14801 1017.0 
200.024826 197.0 
200.151337 376.0 
201.084869 119.0 
201.135269 134.0 
201.165451 5588.0 
202.128448 190.0 
202.169037 587.0 
203.142822 4996.0 
203.180161 1450.0 
204.151047 427.0 
204.187454 306.0 
204.992599 148.0 
205.122314 353.0 
205.15744 1042.0 
207.063828 255.0 
207.132935 717.0 
208.140228 386.0 
209.074982 396.0 
209.118881 182.0 
210.090637 168.0 
211.064743 325.0 
211.144638 120.0 
213.074326 277.0 
213.125961 179.0 
213.163895 835.0 
214.16832 530.0 
215.108658 171.0 
215.144989 475.0 
215.180893 261.0 
216.144867 244.0 
216.237473 237.0 
217.067917 281.0 
217.123917 221.0 
217.159515 1231.0 
217.955765 187.0 
218.16069 419.0 
219.135864 1047.0 
219.173721 1303.0 
220.147217 113.0 
220.180984 135.0 
221.156982 438.0 
221.744003 175.0 
223.058685 201.0 
223.122498 224.0 
225.077164 1184.0 
225.109589 417.0 
225.97406 209.0 
226.086945 231.0 
226.339447 120.0 
227.092133 361.0 
227.170898 587.0 
228.186432 404.0 
229.075546 454.0 
229.160278 524.0 
230.164032 126.0 
230.892578 195.0 
231.089462 1089.0 
231.143127 141.0 
231.172943 198.0 
231.212372 226.0 
232.139008 175.0 
233.150635 207.0 
235.138931 1280.0 
235.164154 586.0 
236.677063 142.0 
236.738037 126.0 
237.077179 3227.0 
237.147964 1117.0 
238.079788 188.0 
239.105072 104.0 
239.177155 201.0 
240.158218 128.0 
241.07077 776.0 
241.165192 207.0 
241.203934 205.0 
241.900925 170.0 
242.139084 147.0 
242.480255 174.0 
243.087845 1296.0 
244.101562 124.0 
244.803925 154.0 
245.092392 171.0 
245.154022 586.0 
245.217987 215.0 
246.114166 101.0 
247.076614 142.0 
247.168991 1398.0 
248.177856 353.0 
249.100479 302.0 
249.147064 298.0 
249.172775 250.0 
250.157425 142.0 
253.067932 153.0 
253.146088 933.0 
253.197327 108.0 
255.087784 11972.0 
255.178406 182.0 
255.210693 363.0 
256.091095 1390.0 
256.207794 214.0 
257.094757 195.0 
257.151611 144.0 
258.222504 152.0 
259.151917 113.0 
259.208862 208.0 
261.186462 941.0 
262.191772 205.0 
263.16153 196.0 
263.197754 301.0 
265.181458 100.0 
265.90033 193.0 
266.176392 296.0 
267.158966 175.0 
268.500366 292.0 
271.031311 139.0 
271.083618 1110.0 
271.783173 127.0 
272.157928 147.0 
272.448975 130.0 
273.097931 23330.0 
273.202118 111.0 
273.670227 148.0 
274.100525 3095.0 
274.193085 226.0 
275.10849 131.0 
277.067932 162.0 
277.18634 158.0 
279.152588 118.0 
279.211243 230.0 
281.224182 125.0 
283.246307 328.0 
285.183868 273.0 
286.187469 166.0 
287.197601 327.0 
289.092529 4327.0 
289.192963 342.0 
290.096344 461.0 
290.941742 168.0 
291.112152 1750.0 
291.229248 162.0 
292.105225 683.0 
293.801971 234.0 
294.298157 145.0 
295.246216 285.0 
296.0867 167.0 
296.148804 191.0 
296.389343 260.0 
297.220886 201.0 
298.230591 173.0 
300.176941 209.0 
301.235016 231.0 
303.040833 188.0 
305.616302 255.0 
306.813446 145.0 
307.011414 151.0 
307.100647 196.0 
307.810883 200.0 
307.848969 166.0 
308.468842 152.0 
308.503876 74.0 
308.556488 320.0 
308.601593 134.0 
308.7099 128.0 
308.971436 190.0 
309.119019 70647.0 
309.25943 171.0 
309.454102 125.0 
309.575867 140.0 
309.823364 246.0 
309.961121 135.0 
310.123474 7047.0 
311.06488 135.0 
311.128265 1161.0 
311.756897 143.0 
311.906525 117.0 
312.145813 109.0 
312.230164 95.0 
312.399994 168.0 
313.063202 117.0 
313.180725 131.0 
313.222473 183.0 
315.240814 350.0 
317.065094 206.0 
317.493256 110.0 
319.243622 119.0 
320.257935 211.0 
321.210358 226.0 
321.255737 116.0 
322.067535 152.0 
323.249146 263.0 
324.867462 83.0 
325.114014 23587.0 
325.228882 210.0 
326.115265 2434.0 
326.197479 239.0 
326.996796 130.0 
327.125946 539.0 
327.265381 156.0 
331.587463 142.0 
332.084259 233.0 
333.256989 225.0 
336.283508 132.0 
337.094391 238.0 
337.228394 173.0 
337.292572 241.0 
342.734833 184.0 
345.239594 224.0 
347.129028 83.0 
347.263641 129.0 
351.251221 297.0 
351.275726 404.0 
351.862732 311.0 
352.243317 178.0 
352.288757 143.0 
353.285889 248.0 
355.11557 186.0 
355.227783 459.0 
355.264496 307.0 
355.570343 252.0 
362.116058 154.0 
363.062805 157.0 
363.303802 172.0 
366.205475 167.0 
369.126312 267.0 
371.263397 191.0 
372.993164 235.0 
373.204224 197.0 
373.286987 615.0 
373.640656 153.0 
375.31189 955.0 
376.217651 170.0 
378.285461 173.0 
378.318878 193.0 
379.131714 133.0 
379.276642 236.0 
379.332458 162.0 
381.129913 204.0 
381.242554 201.0 
381.319611 299.0 
387.300476 120.0 
389.281708 238.0 
391.204529 231.0 
391.231689 318.0 
391.300568 3854.0 
392.002258 113.0 
392.30777 1034.0 
393.277588 432.0 
393.314514 2602.0 
394.084015 121.0 
394.317505 644.0 
395.26355 279.0 
395.303528 139.0 
398.223877 139.0 
399.096191 116.0 
399.131348 294.0 
402.288483 157.0 
403.301697 150.0 
403.736633 157.0 
405.232605 178.0 
407.29599 388.0 
409.310516 5643.0 
410.316864 1241.0 
411.327576 3007.0 
412.317627 199.0 
413.336884 304.0 
413.417877 213.0 
417.139221 830.0 
418.148987 191.0 
419.300537 1699.0 
420.296875 484.0 
421.319519 1129.0 
422.30896 264.0 
425.100983 114.0 
425.31955 318.0 
427.135559 370.0 
427.320679 3634.0 
427.705933 97.0 
428.32666 1101.0 
429.333527 400.0 
430.320129 245.0 
431.992218 108.0 
435.151154 2639.0 
435.290436 165.0 
436.15332 345.0 
436.510773 138.0 
437.073242 273.0 
437.304504 6622.0 
437.428223 100.0 
437.516357 126.0 
438.312408 1583.0 
439.245758 103.0 
439.321655 2260.0 
440.331879 115.0 
441.299011 101.0 
444.126099 138.0 
445.179718 99.0 
447.092743 240.0 
447.296661 171.0 
451.339844 159.0 
453.15799 1116.0 
453.288666 131.0 
454.147247 352.0 
454.30011 139.0 
454.852417 131.0 
455.198578 112.0 
455.315613 16670.0 
455.732147 138.0 
456.257568 149.0 
456.315125 5428.0 
457.330719 1577.0 
459.00592 139.0 
465.309296 471.0 
467.317657 439.0 
470.20462 307.0 
471.075043 150.0 
471.170959 11168.0 
471.26416 92.0 
472.10968 199.0 
472.179688 2517.0 
472.878784 161.0 
473.190826 254.0 
473.327667 22891.0 
473.570496 153.0 
474.328247 4860.0 
475.334106 842.0 
476.358124 247.0 
477.008301 202.0 
477.431885 140.0 
478.314514 157.0 
479.151489 175.0 
482.279327 157.0 
483.235626 171.0 
483.309937 3281.0 
484.324738 242.0 
485.310394 90.0 
487.164734 806.0 
488.181671 244.0 
488.311829 122.0 
499.321564 463.0 
500.496704 178.0 
500.888977 238.0 
501.32135 11887.0 
502.018951 131.0 
502.326996 2309.0 
502.464874 112.0 
503.336365 469.0 
504.125305 286.0 
509.310547 123.0 
515.253723 92.0 
517.317078 194.0 
518.310425 157.0 
519.237549 111.0 
519.275269 168.0 
519.33252 5186.0 
520.338928 1194.0 
537.112549 193.0 
537.177307 110.0 
537.355713 187.0 
547.345215 165.0 
548.329468 91.0 
555.355042 152.0 
556.384338 231.0 
565.332947 361.0 
566.328796 144.0 
578.140503 82.0 
579.198486 194.0 
580.754578 247.0 
581.335083 264.0 
583.320251 123.0 
583.365295 1070.0 
584.373901 349.0 
585.114258 297.0 
586.245178 186.0 
591.175537 213.0 
591.331421 159.0 
593.361389 280.0 
596.159851 99.0 
598.239319 92.0 
599.362122 138.0 
600.14679 392.0 
601.370972 1651.0 
601.691467 262.0 
602.379944 128.0 
602.450928 164.0 
603.275269 171.0 
609.352417 668.0 
611.346924 240.0 
617.366821 488.0 
619.292725 270.0 
619.382935 975.0 
619.420349 660.0 
620.363953 130.0 
620.408875 420.0 
627.355957 341.0 
629.372559 631.0 
630.356445 125.0 
633.142944 100.0 
633.186584 344.0 
633.224792 626.0 
634.211426 173.0 
635.378784 122.0 
645.300598 266.0 
645.346069 616.0 
646.366943 478.0 
647.375732 3067.0 
648.383118 1135.0 
649.389221 111.0 
661.337524 152.0 
663.38147 852.0 
664.384705 287.0 
665.386841 1870.0 
666.387939 126.0 
667.409851 325.0 
668.375916 196.0 
681.378845 190.0 
689.05072 148.0 
689.304138 154.0 
689.780701 398.0 
695.155945 175.0 
698.304016 127.0 
709.394043 219.0 
725.393616 135.0 
745.342834 140.0 
745.414246 143.0 
761.360352 197.0 
773.408447 119.0 
791.412048 388.0 
807.424683 129.0 
809.372742 107.0 
809.430359 200.0 
810.423462 193.0 
825.428101 134.0 
826.67804 139.0 
827.434875 156.0 
828.428467 177.0 
836.340271 228.0 
836.839478 183.0 
843.456482 182.0 
881.425842 127.0 
920.894714 153.0 
921.412781 257.0 
953.46167 109.0 
969.47821 129.0 
971.475098 184.0 
1150.214722 103.0 
1154.364746 102.0 
1381.546631 106.0 
1512.164673 238.0 
1540.605469 186.0 
1620.518921 297.0 
1629.023438 176.0 
1717.798584 129.0 
1748.221558 265.0 
1774.97168 303.0 
1798.153931 256.0 
1853.436523 276.0 
1888.389526 331.0 
1915.523071 204.0 
END IONS

BEGIN IONS
TITLE=Scan Number: 469
PEPMASS=229.086
CHARGE=1+
MSLEVEL=2
FILENAME=E7_GE7_01_2712.mzXML
INSTRUMENT=ion trap
SCANS=469
SMILES=COC1=CC(=O)OC(\C=C\C2=CC=CC=C2)=C1
INCHIKEY=DKKJNZYHGRUXBS-BQYQJAHWSA-N
71.966011 129.0 
77.039169 156.0 
77.76152 319.0 
79.055313 298.0 
91.055656 1045.0 
95.036392 381.0 
95.049843 685.0 
96.698654 138.0 
100.329468 258.0 
101.582947 307.0 
102.045738 137.0 
103.054138 15301.0 
103.992622 276.0 
104.058861 760.0 
105.045723 1373.0 
106.052505 480.0 
106.831467 223.0 
108.018509 141.0 
113.007263 196.0 
113.0392 211.0 
115.054634 5740.0 
116.062637 440.0 
117.068878 763.0 
125.026672 341.0 
126.047554 446.0 
127.053917 1008.0 
128.061584 2958.0 
129.04892 437.0 
129.068893 2524.0 
130.073837 537.0 
131.048843 16436.0 
131.079742 155.0 
132.052612 1037.0 
139.053253 1790.0 
140.06105 3419.0 
141.069733 21838.0 
141.390396 83.0 
142.07399 2361.0 
143.0495 184.0 
143.08226 598.0 
143.926483 152.0 
144.033478 144.0 
144.060135 296.0 
145.064514 862.0 
145.282135 204.0 
147.08316 242.0 
148.871872 146.0 
150.041992 814.0 
151.04512 946.0 
152.061295 12622.0 
152.300552 107.0 
152.883789 90.0 
153.068588 3914.0 
154.074539 276.0 
155.025879 639.0 
155.058746 4994.0 
155.086517 1245.0 
156.067337 712.0 
157.064392 902.0 
157.46904 91.0 
158.072372 914.0 
159.084717 262.0 
164.189606 126.0 
165.069885 1243.0 
168.057281 4587.0 
169.063553 5235.0 
170.071838 1289.0 
173.096375 1607.0 
174.102722 153.0 
179.056778 4007.0 
180.056137 399.0 
181.065125 254.0 
183.080307 4559.0 
184.087372 325.0 
185.057571 581.0 
186.066833 4852.0 
187.072433 129.0 
188.07901 99.0 
193.643692 215.0 
194.092041 237.0 
196.054596 351.0 
197.06192 3658.0 
197.232437 164.0 
198.071838 315.0 
201.09198 14618.0 
202.099396 475.0 
211.076126 1641.0 
212.080597 123.0 
227.06662 131.0 
228.429672 184.0 
228.693817 81.0 
228.951263 144.0 
229.087173 35044.0 
230.093109 2504.0 
231.47554 106.0 
231.56955 138.0 
1417.193604 188.0 
1544.626099 180.0 
1710.057983 280.0 
1893.346802 178.0 
1902.204102 165.0 
END IONS

BEGIN IONS
TITLE=Scan Number: 470
PEPMASS=237.075
CHARGE=1+
MSLEVEL=2
FILENAME=E7_GE7_01_2712.mzXML
INSTRUMENT=ion trap
SCANS=470
SMILES=COC1=CC2=C(OC(=O)C=C2)C(OC)=C1OC
INCHIKEY=RAYQKHLZHPFYEJ-UHFFFAOYSA-N
70.493942 243.0 
77.038979 456.0 
78.047012 409.0 
79.03157 197.0 
79.050392 410.0 
80.058769 405.0 
81.019806 186.0 
83.015198 302.0 
83.047112 145.0 
87.020424 136.0 
89.038979 316.0 
91.040924 205.0 
91.054962 2448.0 
92.024307 605.0 
92.058952 117.0 
93.591942 230.0 
94.044174 738.0 
94.315781 142.0 
95.051926 1269.0 
95.526505 266.0 
96.021233 129.0 
96.050728 93.0 
100.031052 135.0 
102.048813 305.0 
102.844009 231.0 
103.052597 1216.0 
105.035324 2234.0 
106.043739 801.0 
107.006615 168.0 
107.045288 685.0 
109.02816 306.0 
109.066635 106.0 
110.034042 123.0 
116.02562 128.0 
117.034576 236.0 
118.041954 572.0 
119.048706 646.0 
120.059593 610.0 
121.027046 345.0 
121.064598 166.0 
122.035744 467.0 
123.044144 3204.0 
129.034149 310.0 
130.040253 139.0 
131.020782 177.0 
131.048889 1268.0 
132.019058 189.0 
132.054321 145.0 
133.028366 2196.0 
134.036194 2078.0 
134.981186 210.0 
135.042999 1049.0 
136.015884 523.0 
136.052917 725.0 
137.022415 278.0 
137.060974 2414.0 
138.03035 354.0 
138.068283 216.0 
139.071487 186.0 
139.811172 77.0 
140.001495 216.0 
141.916946 90.0 
145.014954 234.0 
145.030807 334.0 
146.038269 1554.0 
147.044067 6081.0 
148.028336 216.0 
148.052734 3191.0 
149.007446 509.0 
149.022858 601.0 
149.058304 376.0 
150.03273 1897.0 
151.03891 4987.0 
151.07077 184.0 
152.046829 967.0 
160.938232 200.0 
161.025482 2243.0 
161.064285 145.0 
162.030167 609.0 
163.041107 1070.0 
163.498688 114.0 
164.044876 525.0 
165.007034 183.0 
165.054245 1889.0 
166.060257 362.0 
167.030945 506.0 
167.642731 180.0 
173.023575 277.0 
174.034012 527.0 
175.039185 3354.0 
176.019669 336.0 
176.047272 4379.0 
177.01001 174.0 
177.04982 447.0 
178.024826 705.0 
178.062469 1220.0 
178.405823 51.0 
179.036819 1218.0 
179.063522 199.0 
180.035294 115.0 
181.087555 181.0 
181.282227 86.0 
182.089355 224.0 
183.959549 55.0 
189.02356 205.0 
190.027222 303.0 
191.031357 1928.0 
192.041794 1051.0 
192.333771 71.0 
193.017365 627.0 
193.050766 5556.0 
194.058517 1017.0 
195.033981 356.0 
195.056808 318.0 
195.447205 56.0 
195.47612 70.0 
203.034363 929.0 
204.040268 2356.0 
205.01796 655.0 
205.050842 665.0 
206.023865 107.0 
207.030258 6656.0 
207.084793 52.0 
207.148865 142.0 
207.623657 57.0 
208.029602 204.0 
208.196472 89.0 
209.082382 110.0 
209.452286 201.0 
219.027527 332.0 
219.275421 190.0 
221.046951 2210.0 
222.05481 3694.0 
223.055313 501.0 
224.761749 128.0 
227.876007 251.0 
235.152206 104.0 
236.044266 209.0 
237.077576 15545.0 
238.080811 1067.0 
239.801163 135.0 
239.98024 68.0 
246.098541 51.0 
288.434937 77.0 
1844.296997 311.0 
END IONS

BEGIN IONS
TITLE=Scan Number: 471
PEPMASS=254.10201
CHARGE=1+
MSLEVEL=2
FILENAME=E7_GE7_01_2712.mzXML
INSTRUMENT=ion trap
SCANS=471
SMILES=COC1=CC2=C(OC(=O)C=C2)C(OC)=C1OC
INCHIKEY=RAYQKHLZHPFYEJ-UHFFFAOYSA-N
78.047729 367.0 
78.45005 121.0 
78.483032 258.0 
78.826126 234.0 
79.050369 173.0 
81.032692 372.0 
89.037781 342.0 
90.047012 583.0 
91.054619 1747.0 
92.023804 131.0 
92.058327 480.0 
95.00795 176.0 
95.049889 950.0 
95.540688 314.0 
95.562843 239.0 
99.814056 278.0 
103.05677 1169.0 
104.049164 206.0 
105.034149 961.0 
106.02964 246.0 
106.048569 176.0 
107.047516 702.0 
107.780602 158.0 
107.95739 114.0 
108.02224 169.0 
109.0261 719.0 
114.349236 202.0 
114.501701 180.0 
116.975189 162.0 
116.993622 243.0 
117.03212 176.0 
118.040901 433.0 
119.048393 555.0 
120.021759 340.0 
120.056313 843.0 
121.035683 325.0 
121.067261 366.0 
122.036369 172.0 
123.044197 3003.0 
123.076256 172.0 
123.098953 106.0 
125.457245 186.0 
128.72551 139.0 
128.812103 205.0 
129.661682 325.0 
130.041245 875.0 
131.04985 886.0 
133.028595 3066.0 
134.037201 1142.0 
134.939941 297.0 
134.982452 443.0 
135.045929 1154.0 
135.986313 239.0 
137.022858 731.0 
137.058212 2960.0 
137.292252 153.0 
138.058945 365.0 
138.495743 196.0 
143.501404 157.0 
145.039551 583.0 
146.036026 1929.0 
147.044861 5465.0 
148.050964 6130.0 
148.825424 138.0 
149.023087 334.0 
149.063293 528.0 
150.032059 258.0 
151.039627 4016.0 
151.082214 400.0 
152.039078 137.0 
152.107651 86.0 
152.990601 116.0 
153.09697 217.0 
154.443466 189.0 
157.03949 156.0 
158.015503 186.0 
159.013062 173.0 
160.055008 176.0 
161.02298 854.0 
161.26886 204.0 
162.030685 1117.0 
163.038742 1575.0 
164.037964 266.0 
164.051849 299.0 
165.016281 91.0 
165.056595 1392.0 
166.061661 1092.0 
167.01207 162.0 
168.041489 141.0 
171.003922 92.0 
172.319656 225.0 
173.031738 243.0 
174.030441 578.0 
175.039932 2917.0 
175.668716 224.0 
175.81189 250.0 
176.012589 405.0 
176.047501 11819.0 
176.42424 98.0 
177.023132 544.0 
177.056091 1005.0 
178.026169 959.0 
178.062851 2507.0 
179.036072 3286.0 
181.086304 1604.0 
182.095734 254.0 
182.458984 187.0 
187.491959 229.0 
189.018646 83.0 
189.995178 133.0 
190.026138 404.0 
190.985565 189.0 
191.034241 3444.0 
192.041626 1764.0 
193.051468 6564.0 
194.057755 1650.0 
195.025238 182.0 
195.343384 157.0 
196.524994 259.0 
197.999252 181.0 
203.033798 1557.0 
204.041779 2312.0 
204.971664 170.0 
205.01329 480.0 
205.048828 552.0 
206.021744 786.0 
206.953888 333.0 
207.029587 10777.0 
207.149918 105.0 
208.035889 1018.0 
209.045715 268.0 
209.085693 519.0 
221.018539 220.0 
221.046326 2816.0 
222.053085 8257.0 
223.056152 364.0 
225.259109 302.0 
236.030334 181.0 
236.156815 162.0 
236.592926 170.0 
236.794769 156.0 
236.993423 114.0 
237.077164 68616.0 
237.135376 178.0 
237.221527 89.0 
237.388611 118.0 
237.510727 139.0 
237.734283 168.0 
237.951996 225.0 
238.079819 3693.0 
238.221573 128.0 
238.26918 96.0 
239.468643 113.0 
239.905106 85.0 
255.090851 124.0 
375.462036 112.0 
511.991119 229.0 
622.680481 86.0 
1751.243896 256.0 
1907.646362 134.0 
1909.787231 263.0 
1915.920654 115.0 
1917.031128 87.0 
1942.307861 302.0 
1984.980347 434.0 
1990.312988 304.0 
END IONS

BEGIN IONS
TITLE=Scan Number: 472
PEPMASS=303.086
CHARGE=1+
MSLEVEL=2
FILENAME=E7_GE7_01_2712.mzXML
INSTRUMENT=ion trap
SCANS=472
SMILES=COC1=CC=C(C=C1O)C2CC(=O)C3=C(O)C=C(O)C=C3O2
INCHIKEY=AIONOLUJZLIMTK-UHFFFAOYSA-N
70.000801 278.0 
77.526581 311.0 
78.049316 473.0 
79.017715 243.0 
82.2136 218.0 
83.014801 790.0 
85.033463 213.0 
89.038589 10585.0 
90.042252 1335.0 
90.075989 215.0 
91.055901 1407.0 
91.924515 112.0 
92.999062 340.0 
93.033607 942.0 
93.072273 322.0 
94.041832 443.0 
95.050652 316.0 
97.010689 199.0 
97.030548 1396.0 
98.03437 362.0 
98.082024 122.0 
98.247871 266.0 
101.775452 260.0 
103.056915 227.0 
104.056999 113.0 
105.029274 296.0 
105.046555 493.0 
106.041809 1153.0 
108.349442 306.0 
108.750031 190.0 
109.029449 270.0 
109.063545 151.0 
110.036423 247.0 
110.066803 151.0 
111.006927 1642.0 
111.043358 1346.0 
112.988297 156.0 
115.053047 144.0 
117.034416 12819.0 
117.070351 459.0 
117.247398 247.0 
118.038177 776.0 
119.042786 366.0 
119.059822 292.0 
121.066719 491.0 
121.204422 332.0 
122.036247 1197.0 
123.045509 3641.0 
124.050232 246.0 
125.024353 844.0 
125.054741 522.0 
126.061157 187.0 
127.038338 207.0 
128.288681 135.0 
129.017853 229.0 
129.07341 162.0 
130.998215 212.0 
131.047119 832.0 
133.031693 298.0 
133.069427 424.0 
134.036713 8571.0 
135.010498 125.0 
135.043762 5576.0 
136.052338 1692.0 
137.025131 746.0 
137.060822 6006.0 
138.066528 272.0 
138.758148 65.0 
139.067047 162.0 
140.062973 173.0 
141.023056 170.0 
141.067245 120.0 
143.649216 225.0 
144.801254 156.0 
145.030106 8746.0 
145.072754 322.0 
146.034882 180.0 
147.010254 177.0 
147.792404 128.0 
148.05217 152.0 
148.268829 296.0 
149.060883 16522.0 
149.330826 121.0 
150.028992 276.0 
150.065201 1888.0 
150.987289 203.0 
151.04097 1934.0 
151.077271 993.0 
151.898224 291.0 
152.047241 211.0 
152.972839 244.0 
153.019577 148458.0 
153.057159 714.0 
153.083221 292.0 
153.281067 99.0 
154.022491 10101.0 
154.47496 106.0 
155.018646 191.0 
155.038681 153.0 
155.176025 119.0 
155.26442 87.0 
155.290085 123.0 
155.312164 202.0 
156.186218 123.0 
157.068756 265.0 
157.41568 74.0 
158.076157 202.0 
159.050186 190.0 
160.053314 524.0 
161.057556 259.0 
161.688919 194.0 
162.032822 995.0 
162.445816 82.0 
162.904236 247.0 
163.003174 186.0 
163.040268 6689.0 
163.134979 279.0 
165.150787 127.0 
165.392136 99.0 
166.029953 971.0 
168.058029 270.0 
169.064514 368.0 
170.020905 375.0 
170.865143 143.0 
171.030853 2817.0 
172.034119 150.0 
173.06189 150.0 
173.182495 80.0 
173.250824 189.0 
175.072922 426.0 
176.050293 314.0 
176.082214 183.0 
176.96434 233.0 
177.056015 60345.0 
177.092972 401.0 
177.48613 95.0 
177.585388 126.0 
178.027069 465.0 
178.060089 4096.0 
179.035721 7549.0 
179.126999 127.0 
179.255646 165.0 
179.356934 135.0 
180.039978 983.0 
181.248734 116.0 
181.580826 111.0 
183.014969 162.0 
184.05249 92.0 
184.075394 236.0 
186.029221 106.0 
187.044586 446.0 
187.07991 129.0 
189.018173 187.0 
190.064133 232.0 
191.069824 271.0 
192.07428 129.0 
194.048523 130.0 
197.06218 373.0 
197.23967 355.0 
198.06778 188.0 
200.35051 91.0 
200.505035 120.0 
201.054626 1661.0 
202.057968 309.0 
203.038925 628.0 
204.045715 181.0 
204.371689 270.0 
204.460312 99.0 
205.054688 229.0 
208.771606 147.0 
210.026596 214.0 
211.077347 137.0 
213.053986 159.0 
215.073944 1396.0 
217.095932 233.0 
219.068665 914.0 
224.046555 176.0 
227.064713 105.0 
228.041397 179.0 
229.045395 310.0 
231.063431 166.0 
237.081024 349.0 
238.065689 225.0 
242.060822 403.0 
243.062012 163.0 
251.706696 383.0 
253.045792 278.0 
254.06015 552.0 
260.078857 207.0 
261.044861 259.0 
261.082336 424.0 
262.080933 258.0 
269.048065 319.0 
270.049255 496.0 
271.067017 325.0 
279.090424 162.0 
285.081451 1838.0 
286.082581 223.0 
287.057526 2465.0 
302.073151 189.0 
302.846191 123.0 
303.0896 39740.0 
303.209656 113.0 
303.759552 189.0 
304.093658 5415.0 
304.146545 190.0 
306.060852 135.0 
1408.157104 80.0 
1440.146973 288.0 
1570.792969 176.0 
1755.002563 241.0 
1874.014038 179.0 
1932.898071 162.0 
1976.787109 202.0 
2004.688599 237.0 
END IONS

BEGIN IONS
TITLE=Scan Number: 473
PEPMASS=309.133
CHARGE=1+
MSLEVEL=2
FILENAME=E7_GE7_01_2712.mzXML
INSTRUMENT=ion trap
SCANS=473
SMILES=CC1CCCC(O)CC(=O)CC2=CC(O)=CC(O)=C2C(=O)O1
INCHIKEY=TXFYYWHRTDECTR-UHFFFAOYSA-N
71.084534 146.0 
75.708885 218.0 
77.038002 268.0 
79.05349 2074.0 
79.885307 204.0 
81.070084 9325.0 
81.444031 118.0 
82.055107 279.0 
82.072105 799.0 
82.723015 78.0 
83.046478 360.0 
89.0373 251.0 
90.045334 225.0 
91.053703 654.0 
93.040955 160.0 
93.068558 210.0 
94.040916 203.0 
94.066818 189.0 
95.047882 161.0 
95.087357 486.0 
97.067276 416.0 
99.082222 835.0 
103.057213 550.0 
105.042702 389.0 
105.068954 578.0 
105.095123 235.0 
106.040443 272.0 
107.048477 2107.0 
111.023018 227.0 
111.044113 921.0 
115.053139 1195.0 
117.033463 76.0 
117.067894 119.0 
118.038628 186.0 
119.027893 313.0 
119.047119 1139.0 
119.086571 126.0 
119.80114 148.0 
121.028992 4442.0 
121.065071 1054.0 
123.045311 2960.0 
124.736 206.0 
125.060631 136.0 
127.181084 205.0 
128.064468 119.0 
128.131439 206.0 
129.053757 158.0 
129.070938 521.0 
131.051941 919.0 
132.053802 853.0 
133.063873 632.0 
133.398865 82.0 
135.043823 10183.0 
136.048218 1079.0 
136.08252 181.0 
136.407654 262.0 
137.02359 303.0 
137.05954 334.0 
137.275696 172.0 
139.038712 503.0 
139.059143 441.0 
142.078278 311.0 
143.050705 408.0 
145.024506 612.0 
145.064514 323.0 
145.650833 314.0 
146.037247 1169.0 
146.069138 208.0 
147.017899 105.0 
147.044769 3974.0 
147.080688 839.0 
147.334839 100.0 
148.049377 492.0 
149.023087 1225.0 
149.060577 3697.0 
149.604004 133.0 
150.028183 204.0 
150.06427 560.0 
151.039642 2994.0 
152.066437 145.0 
153.068939 153.0 
153.429672 82.0 
154.038818 180.0 
155.041138 132.0 
155.058975 357.0 
155.086929 176.0 
156.095474 213.0 
157.048904 420.0 
157.103226 176.0 
158.077087 691.0 
159.049835 310.0 
159.077484 483.0 
160.053238 1297.0 
161.059647 6775.0 
162.065475 806.0 
162.191299 84.0 
162.986542 154.0 
163.008255 295.0 
163.039688 36380.0 
163.074524 430.0 
164.044235 3522.0 
165.019012 179.0 
165.052994 2937.0 
165.140823 77.0 
165.192703 142.0 
165.399445 128.0 
166.059677 350.0 
166.989487 178.0 
167.034821 12663.0 
168.038864 2073.0 
169.037964 325.0 
169.068665 264.0 
169.104813 261.0 
171.04921 273.0 
172.089386 191.0 
173.061279 1663.0 
173.918091 115.0 
174.034103 127.0 
174.065674 903.0 
175.038651 1697.0 
175.074707 1642.0 
175.908447 115.0 
176.04686 1100.0 
176.082962 256.0 
176.987473 253.0 
177.018799 2458.0 
177.05484 3191.0 
177.568634 224.0 
178.061798 710.0 
179.03595 1781.0 
180.072891 99.0 
181.048691 376.0 
181.067993 514.0 
183.310287 94.0 
184.044968 115.0 
184.090134 136.0 
184.568359 175.0 
185.062042 733.0 
185.098358 320.0 
186.067978 141.0 
186.10791 135.0 
187.039413 434.0 
187.071869 2119.0 
188.043167 147.0 
189.055832 1910.0 
190.067337 305.0 
191.035583 6713.0 
191.088486 156.0 
191.138245 113.0 
192.040833 2340.0 
192.072815 184.0 
193.049759 12411.0 
194.055161 923.0 
194.080048 181.0 
194.135666 111.0 
195.031433 1161.0 
195.077057 224.0 
196.090057 153.0 
197.058105 520.0 
198.073425 441.0 
199.042709 136.0 
199.076584 399.0 
199.11174 67.0 
200.084183 738.0 
201.055618 1864.0 
201.083694 477.0 
202.051773 396.0 
202.087326 168.0 
203.072586 1714.0 
203.111084 355.0 
203.146027 212.0 
203.844864 115.0 
204.075378 334.0 
205.051865 5204.0 
206.053223 460.0 
207.063431 742.0 
210.065918 284.0 
211.073318 155.0 
211.116043 302.0 
212.075195 105.0 
213.054062 539.0 
213.088394 559.0 
214.059036 230.0 
214.103561 382.0 
216.678482 92.0 
217.049255 3580.0 
217.082977 554.0 
217.119797 341.0 
218.058945 548.0 
219.066208 2487.0 
220.077332 479.0 
221.047684 901.0 
221.425247 219.0 
222.052429 172.0 
226.061844 289.0 
227.073547 286.0 
227.111679 766.0 
228.115173 105.0 
229.089752 467.0 
229.123016 3127.0 
230.689285 137.0 
230.848373 68.0 
231.069443 1400.0 
231.102158 391.0 
231.983109 152.0 
232.065781 170.0 
232.109711 277.0 
233.082611 134.0 
235.046005 170.0 
237.096619 207.0 
239.105621 103.0 
240.078857 286.0 
243.86409 69.0 
245.033585 218.0 
245.119522 1333.0 
246.125244 212.0 
247.098434 319.0 
247.130707 272.0 
254.368362 222.0 
255.103043 2990.0 
256.101624 563.0 
263.088837 112.0 
266.291382 79.0 
273.050293 171.0 
273.11322 11158.0 
274.126404 656.0 
289.314667 167.0 
291.123138 3288.0 
292.127899 234.0 
292.389252 77.0 
309.132538 171.0 
310.541992 232.0 
311.196899 105.0 
326.1521 202.0 
350.7435 108.0 
1673.277344 345.0 
1699.45459 141.0 
1743.369019 235.0 
1994.00354 226.0 
END IONS

BEGIN IONS
TITLE=Scan Number: 474
PEPMASS=397.12799
CHARGE=1+
MSLEVEL=2
FILENAME=E7_GE7_01_2712.mzXML
INSTRUMENT=ion trap
SCANS=474
SMILES=CC(C)(O)CCC1=C2OC3=C(C(=O)C2=C(O)C=C1)C(O)=C4C5C=COC5OC4=C3
INCHIKEY=JWPAJVNQGTWPMI-UHFFFAOYSA-N
72.18924 253.0 
72.524895 139.0 
80.041245 167.0 
80.570137 81.0 
81.071625 214.0 
81.686371 129.0 
86.653709 169.0 
100.470039 351.0 
103.972046 256.0 
107.050125 149.0 
110.428841 196.0 
119.050873 646.0 
124.066467 173.0 
125.789658 198.0 
133.034149 233.0 
134.985428 217.0 
138.063034 415.0 
145.020157 131.0 
145.069214 199.0 
147.045624 77.0 
149.024063 1588.0 
153.070663 338.0 
161.402191 180.0 
163.039017 160.0 
167.033112 1207.0 
169.062088 166.0 
171.041855 192.0 
181.80365 301.0 
182.144638 175.0 
183.081604 132.0 
185.055832 143.0 
190.02005 277.0 
191.037476 118.0 
195.053009 248.0 
195.973343 238.0 
196.287445 107.0 
196.608978 209.0 
197.055435 117.0 
198.069183 120.0 
199.074585 116.0 
200.077652 309.0 
200.778229 251.0 
205.09935 284.0 
205.900558 249.0 
206.77478 246.0 
209.049469 173.0 
211.07074 378.0 
212.072067 178.0 
212.898956 85.0 
213.060562 158.0 
215.040298 151.0 
215.081955 209.0 
216.042343 353.0 
221.061874 239.0 
223.080643 131.0 
225.054047 453.0 
226.062164 155.0 
226.892105 116.0 
227.072556 1001.0 
228.111404 263.0 
230.543533 228.0 
233.047501 173.0 
234.046844 148.0 
237.058914 185.0 
238.062775 117.0 
239.067017 623.0 
240.035645 432.0 
240.073563 317.0 
242.095673 119.0 
243.028076 136.0 
244.033844 142.0 
249.055634 233.0 
250.066299 1100.0 
251.069794 780.0 
252.038239 195.0 
253.052734 1662.0 
254.056076 158.0 
254.101593 139.0 
254.478241 152.0 
255.027817 246.0 
255.064514 93.0 
257.075958 190.0 
259.027557 422.0 
259.575836 249.0 
260.024902 212.0 
261.091431 115.0 
265.041565 326.0 
265.093781 246.0 
266.052673 564.0 
266.088531 132.0 
266.972595 184.0 
267.066833 9986.0 
268.072845 2534.0 
268.591339 81.0 
268.966431 110.0 
269.039032 108.0 
269.079803 445.0 
270.062347 282.0 
270.938293 159.0 
271.066223 151.0 
271.098877 144.0 
277.055359 489.0 
277.941986 94.0 
278.061829 1445.0 
279.014282 171.0 
279.06665 430.0 
279.095734 259.0 
280.040253 166.0 
280.087219 211.0 
280.125916 337.0 
281.047485 5152.0 
282.053192 2638.0 
282.092041 272.0 
283.06012 553.0 
284.066254 288.0 
285.078918 151.0 
287.053955 92.0 
287.931946 286.0 
289.095764 90.0 
289.987518 207.0 
290.238739 72.0 
291.249695 177.0 
293.082794 136.0 
294.052734 340.0 
294.117371 114.0 
295.009583 733.0 
295.062683 26436.0 
296.06778 14230.0 
297.070892 2459.0 
297.495422 166.0 
298.042938 144.0 
298.077362 144.0 
298.115387 198.0 
301.072174 174.0 
303.386536 126.0 
305.039734 121.0 
305.116364 459.0 
305.903046 212.0 
306.052032 394.0 
307.071198 124.0 
309.07663 4327.0 
310.050598 1321.0 
310.087616 764.0 
311.065613 392.0 
311.255035 91.0 
312.084137 114.0 
313.072479 3172.0 
313.148956 142.0 
314.035156 131.0 
314.072632 301.0 
315.052185 144.0 
315.453217 186.0 
315.983978 159.0 
317.064209 145.0 
317.090851 627.0 
318.010529 134.0 
318.091217 286.0 
319.080322 215.0 
320.06781 89.0 
321.070648 1545.0 
321.127747 201.0 
322.064423 415.0 
323.058258 2355.0 
323.130249 905.0 
323.947327 248.0 
324.071014 178.0 
324.12262 145.0 
325.034363 162.0 
325.073059 305.0 
326.310852 104.0 
326.68866 226.0 
327.118042 426.0 
328.0336 115.0 
328.123901 393.0 
332.108978 140.0 
334.36203 214.0 
335.099091 866.0 
336.105804 530.0 
337.074097 991.0 
339.085785 411.0 
341.066772 121.0 
341.141602 8190.0 
341.931305 113.0 
342.084564 261.0 
342.145142 506.0 
343.113403 208.0 
349.109436 129.0 
350.099365 470.0 
350.730469 84.0 
351.122223 3254.0 
352.130188 432.0 
353.094299 268.0 
354.827057 152.0 
355.11908 1047.0 
356.123718 110.0 
364.091125 172.0 
368.134033 944.0 
368.482697 86.0 
369.022522 284.0 
369.070923 605.0 
369.135956 49034.0 
370.138123 8321.0 
371.134491 619.0 
371.645905 94.0 
374.315338 287.0 
375.083435 211.0 
378.941772 145.0 
379.072662 317.0 
379.119629 1040.0 
382.095276 275.0 
382.304718 303.0 
396.128326 230.0 
397.130554 66936.0 
397.311096 99.0 
397.542694 75.0 
397.896667 387.0 
398.13446 11771.0 
399.151672 96.0 
400.304626 92.0 
400.410675 100.0 
414.833771 111.0 
759.957764 87.0 
END IONS

BEGIN IONS
TITLE=Scan Number: 477
PEPMASS=636.33801
CHARGE=1+
MSLEVEL=2
FILENAME=E7_GE7_01_2712.mzXML
INSTRUMENT=ion trap
SCANS=477
SMILES=COC1=C(C(C)C(OC(C)=O)C(\C)=C\C)C(=O)C2=C(C(O)C3C(C)(CCC4OC(CC(OC(C)=O)C34C)C(C)(C)O)O2)C1=O
INCHIKEY=SOJLUKNFWGXUFS-RVDMUPIBSA-N
71.050331 810.0 
73.28167 315.0 
81.066025 608.0 
82.070396 197.0 
84.89373 229.0 
85.064125 156.0 
93.069649 766.0 
95.085236 276.0 
99.546516 130.0 
101.826202 227.0 
105.071045 732.0 
106.614922 183.0 
106.819572 433.0 
107.089844 334.0 
109.066795 395.0 
109.099655 301.0 
111.080246 188.0 
113.06292 239.0 
113.096848 1684.0 
114.102142 249.0 
115.052956 171.0 
117.06929 264.0 
118.740517 126.0 
119.084839 1466.0 
120.088905 166.0 
121.0672 370.0 
121.101982 1898.0 
122.104797 292.0 
123.082275 127.0 
123.114426 176.0 
125.096153 158.0 
127.073967 160.0 
128.062637 137.0 
131.0849 517.0 
133.072006 206.0 
133.100098 1399.0 
135.083267 899.0 
135.116943 668.0 
136.087723 137.0 
137.065216 380.0 
137.093613 129.0 
143.082718 241.0 
143.259033 168.0 
145.100433 259.0 
146.080978 281.0 
146.103409 205.0 
146.642242 120.0 
147.044739 198.0 
147.081741 2203.0 
147.117325 1292.0 
148.085907 283.0 
149.05574 355.0 
149.097717 6388.0 
149.132278 137.0 
149.835846 151.0 
150.096741 130.0 
151.114731 346.0 
152.117126 195.0 
153.01535 143.0 
153.0905 355.0 
154.029495 249.0 
155.088928 268.0 
155.133911 154.0 
156.095505 131.0 
157.085022 219.0 
157.276276 126.0 
158.06955 189.0 
158.110657 311.0 
159.082062 1258.0 
159.116989 734.0 
160.082748 309.0 
161.056992 171.0 
161.095703 1247.0 
161.130569 313.0 
162.064499 158.0 
162.101074 571.0 
163.07663 126.0 
163.110947 561.0 
163.147858 473.0 
164.116547 179.0 
164.148605 198.0 
165.059784 269.0 
165.091644 431.0 
167.065048 138.0 
167.106354 124.0 
168.096634 140.0 
169.02182 135.0 
169.066818 162.0 
171.082794 225.0 
171.112579 529.0 
172.65744 91.0 
173.055298 134.0 
173.095825 1398.0 
173.133453 495.0 
175.075073 272.0 
175.112 327.0 
175.147873 312.0 
176.082977 89.0 
176.124039 200.0 
177.053574 317.0 
177.092468 1189.0 
177.166061 111.0 
178.139633 146.0 
179.073425 167.0 
179.097824 236.0 
179.127274 206.0 
181.106644 185.0 
183.076172 138.0 
183.130753 331.0 
185.057724 175.0 
185.100082 463.0 
185.131561 381.0 
186.09613 193.0 
186.876877 91.0 
187.036514 240.0 
187.074631 471.0 
187.11116 338.0 
187.147781 1354.0 
188.117233 200.0 
188.148849 169.0 
188.994705 117.0 
189.020111 232.0 
189.056305 159.0 
189.089172 639.0 
189.126282 826.0 
189.827133 130.0 
190.092163 221.0 
190.120575 151.0 
191.06366 227.0 
191.108154 726.0 
191.145721 1090.0 
193.056335 136.0 
194.009399 171.0 
195.035172 266.0 
195.076004 173.0 
197.032303 119.0 
197.098801 375.0 
197.130096 160.0 
199.037064 142.0 
199.076126 1512.0 
199.120697 219.0 
199.152542 166.0 
201.092361 834.0 
201.130066 472.0 
202.07019 235.0 
203.034271 1025.0 
203.071671 463.0 
203.116379 755.0 
203.143051 3480.0 
204.042999 190.0 
204.143295 245.0 
205.033997 185.0 
205.087921 406.0 
205.160812 1572.0 
205.870804 257.0 
206.160919 188.0 
207.031219 398.0 
207.066162 465.0 
207.134567 173.0 
207.180359 88.0 
208.120071 144.0 
209.01297 180.0 
209.044861 936.0 
209.154694 780.0 
210.044479 116.0 
211.04805 290.0 
211.068741 250.0 
211.111099 176.0 
211.553726 94.0 
212.083191 206.0 
213.055023 306.0 
213.088318 290.0 
213.124435 1078.0 
214.066528 170.0 
214.138824 176.0 
215.074768 567.0 
216.044037 124.0 
216.09726 101.0 
217.044678 541.0 
217.086334 1471.0 
218.035492 166.0 
218.091675 307.0 
218.378555 185.0 
219.057144 112.0 
219.113846 360.0 
219.140305 161.0 
220.077148 129.0 
220.145096 200.0 
220.223724 322.0 
221.041565 580.0 
221.104294 137.0 
221.155243 429.0 
222.055099 151.0 
222.161743 792.0 
223.075989 144.0 
223.172272 140.0 
223.518921 150.0 
225.09375 274.0 
227.046204 162.0 
227.070724 365.0 
227.143372 256.0 
229.087692 898.0 
229.125702 395.0 
230.056961 469.0 
230.091202 226.0 
231.103806 524.0 
231.14151 1304.0 
232.131516 232.0 
233.118652 314.0 
234.084534 121.0 
235.060043 249.0 
237.075485 186.0 
238.044434 278.0 
238.082703 81.0 
241.085205 557.0 
241.125336 495.0 
242.131058 228.0 
242.167297 72.0 
243.109024 257.0 
244.093781 160.0 
245.083115 5798.0 
246.085785 1002.0 
247.041275 197.0 
247.060623 335.0 
247.098648 3916.0 
247.460464 119.0 
248.026123 176.0 
248.064545 333.0 
248.100815 334.0 
249.08223 321.0 
249.147156 713.0 
251.175034 156.0 
254.052597 155.0 
254.323975 129.0 
255.088074 162.0 
256.917542 176.0 
257.104218 479.0 
257.647186 215.0 
258.271576 101.0 
259.039581 174.0 
259.096161 1848.0 
259.20459 149.0 
259.952087 269.0 
260.103699 108.0 
261.072327 91.0 
261.113434 979.0 
262.131195 148.0 
262.175262 167.0 
263.095306 1006.0 
265.121155 423.0 
266.151855 135.0 
267.159668 790.0 
270.115021 121.0 
271.090637 198.0 
271.138367 179.0 
271.383179 163.0 
272.08963 124.0 
273.108643 456.0 
274.106537 162.0 
274.182373 99.0 
275.080505 211.0 
275.183838 417.0 
275.286102 115.0 
276.091492 191.0 
276.154236 159.0 
277.108002 19181.0 
277.912659 74.0 
278.113098 2629.0 
279.137543 138.0 
280.145905 333.0 
281.173706 129.0 
283.132935 379.0 
284.099182 298.0 
284.807617 95.0 
285.124725 246.0 
286.145477 236.0 
286.178528 116.0 
287.126404 460.0 
287.146545 422.0 
287.185822 224.0 
288.135895 379.0 
290.1138 148.0 
290.152496 108.0 
291.123199 374.0 
291.177551 99.0 
292.155426 81.0 
293.129028 609.0 
293.550446 92.0 
297.111176 467.0 
297.150909 268.0 
299.124359 342.0 
299.745636 185.0 
300.12326 299.0 
300.156067 452.0 
301.11792 303.0 
301.171387 282.0 
301.923431 326.0 
302.133331 449.0 
303.125977 232.0 
303.150757 240.0 
304.108307 161.0 
304.179108 118.0 
305.113953 110.0 
305.158081 269.0 
305.293671 292.0 
307.133362 612.0 
308.105103 143.0 
308.136841 368.0 
309.10968 346.0 
309.149597 303.0 
309.183075 108.0 
310.141937 790.0 
311.128632 181.0 
311.168518 192.0 
311.291138 213.0 
312.102966 109.0 
312.221954 148.0 
313.142761 150.0 
314.143311 391.0 
315.171844 264.0 
316.139313 164.0 
317.135132 448.0 
318.154907 152.0 
319.088837 98.0 
319.140045 490.0 
319.177673 257.0 
320.135223 303.0 
321.145477 207.0 
321.24649 89.0 
322.142212 343.0 
322.852631 118.0 
323.176331 186.0 
323.208313 436.0 
323.268738 183.0 
324.137238 138.0 
324.389648 336.0 
325.105499 299.0 
325.148956 1001.0 
326.144501 278.0 
326.974152 131.0 
327.131866 312.0 
327.195709 138.0 
328.15271 132.0 
329.116089 185.0 
329.170471 265.0 
330.126923 307.0 
331.109192 177.0 
331.18219 390.0 
332.192169 89.0 
333.112488 420.0 
333.144623 519.0 
333.188507 1137.0 
333.293335 150.0 
334.11615 115.0 
334.190857 95.0 
335.132019 182.0 
335.16391 320.0 
335.204803 173.0 
337.139069 412.0 
337.187653 243.0 
339.10614 170.0 
339.135681 342.0 
339.181366 432.0 
341.07605 363.0 
341.118805 117.0 
342.122406 91.0 
342.170715 459.0 
342.834778 98.0 
343.174591 1390.0 
344.142273 111.0 
345.146088 787.0 
345.186646 195.0 
346.148804 602.0 
347.123138 169.0 
347.165314 348.0 
348.128113 112.0 
349.177979 476.0 
350.098816 225.0 
350.16507 270.0 
350.24704 141.0 
351.14447 346.0 
351.197876 291.0 
353.174072 240.0 
354.147736 497.0 
354.198029 99.0 
355.178558 488.0 
356.180328 180.0 
357.128204 132.0 
357.289703 174.0 
359.144226 335.0 
360.135834 352.0 
360.168945 568.0 
361.184357 3095.0 
362.184692 702.0 
363.116547 144.0 
363.1586 2266.0 
364.167358 809.0 
365.136292 198.0 
365.234253 122.0 
366.172394 96.0 
367.135986 166.0 
367.176483 324.0 
369.143982 158.0 
369.207764 110.0 
374.172546 169.0 
375.128174 214.0 
375.166901 240.0 
375.203033 374.0 
376.102722 187.0 
376.158478 150.0 
376.197418 209.0 
377.174469 1146.0 
377.520935 142.0 
378.194031 126.0 
378.220001 238.0 
379.195801 2477.0 
380.178619 664.0 
380.233032 178.0 
381.169159 1039.0 
382.166992 352.0 
382.447754 102.0 
383.186951 332.0 
385.171661 219.0 
386.225494 80.0 
387.183472 119.0 
388.17038 280.0 
388.658356 142.0 
389.138947 136.0 
389.214142 421.0 
390.216278 110.0 
391.193695 1084.0 
392.202881 397.0 
393.167023 543.0 
393.203278 972.0 
394.158203 170.0 
394.194946 97.0 
395.191284 2855.0 
396.17627 530.0 
396.233459 191.0 
397.159454 115.0 
397.19577 732.0 
399.197388 390.0 
401.249817 192.0 
403.223053 828.0 
405.174622 110.0 
406.263275 250.0 
407.218048 579.0 
408.225952 119.0 
408.75473 99.0 
409.24942 137.0 
411.155212 127.0 
411.218811 4648.0 
411.730347 199.0 
412.162994 141.0 
412.211456 197.0 
413.12619 107.0 
413.202026 1464.0 
414.041962 136.0 
414.228424 286.0 
415.180847 133.0 
416.196838 136.0 
418.24231 176.0 
419.185974 142.0 
419.577393 199.0 
421.246185 621.0 
423.229004 133.0 
424.227112 187.0 
425.19104 398.0 
427.610687 162.0 
427.902863 269.0 
430.225677 130.0 
431.219513 2417.0 
432.220612 1119.0 
433.200775 208.0 
433.235504 264.0 
434.208588 147.0 
435.17453 309.0 
437.190125 194.0 
438.222931 360.0 
439.214935 264.0 
439.25592 325.0 
440.228241 191.0 
445.232513 454.0 
446.233826 158.0 
448.219025 136.0 
449.110779 205.0 
449.165833 300.0 
449.234528 7491.0 
450.241669 1249.0 
451.248779 188.0 
452.25766 185.0 
453.263458 134.0 
457.220551 176.0 
461.23111 130.0 
463.249084 4036.0 
464.188568 89.0 
464.253845 1725.0 
465.344116 166.0 
466.78653 180.0 
467.127197 165.0 
467.177582 546.0 
467.245667 9811.0 
468.252899 1010.0 
470.248993 250.0 
474.255219 410.0 
475.275818 117.0 
480.274811 101.0 
481.194946 402.0 
481.261292 10862.0 
482.136536 260.0 
482.269592 1637.0 
483.251892 90.0 
491.235046 755.0 
492.227997 129.0 
495.237274 170.0 
497.23288 400.0 
498.243896 145.0 
498.670105 191.0 
498.870605 171.0 
499.134155 313.0 
499.183563 453.0 
499.273956 16001.0 
499.656189 109.0 
499.803009 71.0 
500.276886 3883.0 
501.271515 424.0 
505.259216 117.0 
507.712036 183.0 
510.262299 659.0 
511.263428 369.0 
524.702026 239.0 
526.291931 160.0 
526.38739 125.0 
527.18689 175.0 
527.266235 2092.0 
528.274292 606.0 
528.328918 72.0 
528.688538 147.0 
529.312622 141.0 
540.262146 170.0 
541.282349 1068.0 
542.27832 71.0 
546.309387 244.0 
557.255005 531.0 
558.111572 90.0 
558.260681 135.0 
559.178101 260.0 
559.232117 704.0 
559.293701 13210.0 
559.48999 113.0 
560.247681 149.0 
560.295044 3302.0 
560.516663 173.0 
561.304749 196.0 
561.919006 93.0 
571.283142 202.0 
575.269531 111.0 
582.417236 99.0 
600.319397 235.0 
601.317749 216.0 
602.328857 201.0 
622.402893 160.0 
636.365906 196.0 
636.864075 293.0 
654.440735 173.0 
1260.709229 271.0 
END IONS

BEGIN IONS
TITLE=Scan Number: 479
PEPMASS=271.06
CHARGE=1+
MSLEVEL=2
FILENAME=C10_BC10_01_2854.mzXML
INSTRUMENT=ion trap
SCANS=479
SMILES=CC1=CC2=C(C(O)=C1)C(=O)C3=C(C=C(O)C=C3O)C2=O
INCHIKEY=RHMXXJGYXNZAPX-UHFFFAOYSA-N
86.522064 172.0 
89.03624 127.0 
90.996864 153.0 
91.017776 256.0 
91.055206 241.0 
95.004883 160.0 
106.046883 161.0 
108.491341 204.0 
109.608337 189.0 
115.05407 5190.0 
116.05648 132.0 
117.063911 280.0 
125.039108 167.0 
127.050705 551.0 
128.057785 428.0 
129.964127 107.0 
135.043686 1172.0 
137.020462 397.0 
139.048309 192.0 
140.062088 416.0 
141.026718 132.0 
141.06842 8189.0 
142.070358 630.0 
144.057495 149.0 
145.065521 668.0 
151.048401 134.0 
152.060745 309.0 
153.066895 167.0 
154.045776 219.0 
155.048462 557.0 
157.062088 197.0 
159.079636 207.0 
160.076233 166.0 
168.058578 1533.0 
168.408951 227.0 
169.064438 9356.0 
170.063797 1298.0 
171.055923 171.0 
173.036453 407.0 
173.059875 459.0 
174.060577 947.0 
174.943268 179.0 
175.06395 160.0 
179.05072 351.0 
183.030991 136.0 
185.038406 192.0 
191.188873 282.0 
191.949921 215.0 
193.76918 87.0 
196.044403 156.0 
197.059814 14685.0 
197.384598 380.0 
198.063187 1139.0 
201.053543 3635.0 
207.04628 413.0 
211.036911 199.0 
213.051743 224.0 
225.055008 8380.0 
225.678635 121.0 
226.060074 922.0 
227.791107 175.0 
229.048874 2098.0 
230.045776 130.0 
235.38063 103.0 
236.006851 150.0 
243.055511 130.0 
252.046631 94.0 
253.051392 1049.0 
260.889526 116.0 
269.917084 73.0 
269.976715 309.0 
270.297882 144.0 
270.454529 96.0 
270.654694 111.0 
271.059235 60256.0 
271.248871 256.0 
271.50235 119.0 
271.564514 83.0 
271.614441 151.0 
272.063446 3981.0 
274.045563 127.0 
276.443207 195.0 
281.04776 101.0 
END IONS

BEGIN IONS
TITLE=Scan Number: 480
PEPMASS=383.22101
CHARGE=1+
MSLEVEL=2
FILENAME=C10_BC10_01_2854.mzXML
INSTRUMENT=ion trap
SCANS=480
SMILES=CC1=CCC2C(C)(C)C(O)CCC2(C)C1COC3=CC=C4C=CC(=O)OC4=C3
INCHIKEY=MCTDXPDDZLFJHR-UHFFFAOYSA-N
73.722755 143.0 
75.383919 200.0 
79.051064 408.0 
80.056892 172.0 
81.069923 1339.0 
89.037712 124.0 
91.053986 1754.0 
93.071205 530.0 
95.048096 174.0 
95.085213 2215.0 
96.08886 295.0 
99.032852 297.0 
101.661575 402.0 
105.045197 921.0 
105.069328 1788.0 
106.076675 1088.0 
107.048302 4231.0 
107.085312 3718.0 
108.054306 124.0 
108.087418 400.0 
109.083328 377.0 
109.101898 1541.0 
110.886856 94.0 
111.11647 718.0 
111.752625 151.0 
116.058929 153.0 
117.038773 394.0 
117.071747 169.0 
118.076134 548.0 
119.047363 2702.0 
119.084923 4212.0 
120.066032 629.0 
121.099892 1168.0 
122.102791 176.0 
123.115791 456.0 
128.057358 125.0 
129.069717 150.0 
130.076172 175.0 
130.734177 106.0 
131.050781 440.0 
131.081757 158.0 
132.099121 230.0 
133.100693 4675.0 
134.107101 424.0 
135.021545 226.0 
135.042816 480.0 
135.115524 1918.0 
137.126724 146.0 
141.486435 304.0 
144.851334 234.0 
145.097275 536.0 
146.095383 249.0 
147.044464 95.0 
147.115433 2490.0 
148.119965 503.0 
153.128891 161.0 
154.834167 187.0 
159.043152 410.0 
159.11734 1380.0 
160.117966 154.0 
161.132294 3140.0 
162.502533 198.0 
162.998047 150.0 
163.038376 36406.0 
163.129608 152.0 
163.148315 403.0 
163.689087 161.0 
164.041977 1801.0 
165.046188 156.0 
165.203171 178.0 
174.134445 677.0 
175.036697 865.0 
175.143433 241.0 
187.078934 283.0 
188.149033 219.0 
189.055969 415.0 
199.043152 606.0 
201.054016 676.0 
203.068054 371.0 
203.178986 3404.0 
203.239685 233.0 
204.182175 436.0 
210.06395 201.0 
213.021301 108.0 
213.089996 161.0 
214.061493 283.0 
215.070526 403.0 
225.052017 112.0 
227.069565 140.0 
229.079742 156.0 
231.098846 487.0 
241.062134 143.0 
241.087204 432.0 
255.103561 701.0 
257.113586 415.0 
267.100983 120.0 
269.119019 992.0 
270.115326 163.0 
281.119843 259.0 
285.159698 141.0 
295.139404 158.0 
365.20697 785.0 
366.20752 135.0 
1391.552612 351.0 
1576.80835 252.0 
1699.973755 122.0 
1742.89917 235.0 
1789.509155 252.0 
1895.538086 237.0 
END IONS

BEGIN IONS
TITLE=Scan Number: 481
PEPMASS=365.20999
CHARGE=1+
MSLEVEL=2
FILENAME=C10_BC10_01_2854.mzXML
INSTRUMENT=ion trap
SCANS=481
SMILES=CC1=CCC2C(C)(C)C(O)CCC2(C)C1COC3=CC=C4C=CC(=O)OC4=C3
INCHIKEY=MCTDXPDDZLFJHR-UHFFFAOYSA-N
77.94767 287.0 
79.019722 376.0 
79.052788 741.0 
81.068138 1138.0 
82.227264 197.0 
85.063026 201.0 
89.038666 562.0 
91.053757 2577.0 
92.055008 140.0 
93.051689 176.0 
93.069656 1853.0 
95.049416 133.0 
95.082947 556.0 
102.844261 143.0 
103.052437 239.0 
105.042671 502.0 
105.069221 2163.0 
105.191887 140.0 
106.000198 198.0 
106.075264 453.0 
107.048553 7124.0 
107.084549 1567.0 
108.05162 296.0 
108.092926 177.0 
109.10025 498.0 
115.052162 623.0 
117.031746 231.0 
117.069527 449.0 
119.011322 112.0 
119.051353 2577.0 
119.083649 2199.0 
120.056107 179.0 
121.098091 124.0 
122.102852 117.0 
123.116158 427.0 
128.062012 197.0 
131.049561 479.0 
133.101288 2195.0 
135.040588 350.0 
135.115067 1123.0 
136.125595 294.0 
141.067856 221.0 
145.101395 422.0 
147.118042 3133.0 
148.120926 221.0 
149.133575 185.0 
149.725922 118.0 
150.128128 218.0 
159.042603 618.0 
159.121002 215.0 
161.112518 191.0 
161.132614 784.0 
162.059006 428.0 
162.411194 260.0 
162.934235 115.0 
163.038391 34636.0 
163.169693 89.0 
164.042068 1599.0 
165.073792 201.0 
168.513077 212.0 
170.186142 105.0 
171.30098 168.0 
173.128693 358.0 
173.706116 92.0 
175.034744 808.0 
175.150925 305.0 
176.403061 114.0 
179.20932 104.0 
181.047729 152.0 
187.039352 181.0 
189.048813 199.0 
190.175705 142.0 
198.070648 229.0 
198.373474 110.0 
199.036758 573.0 
200.952713 91.0 
201.051422 644.0 
203.178055 2490.0 
213.054596 316.0 
215.067612 1078.0 
227.072754 737.0 
228.070068 143.0 
228.309418 141.0 
229.080124 256.0 
231.098129 157.0 
231.516785 102.0 
239.072891 110.0 
241.090042 131.0 
257.111115 122.0 
265.085907 236.0 
267.094666 152.0 
269.117065 198.0 
281.11554 159.0 
286.316742 427.0 
287.319031 186.0 
288.327057 127.0 
295.14035 133.0 
297.076233 122.0 
298.2836 160.0 
325.14859 151.0 
365.120331 212.0 
365.171326 252.0 
365.212738 1483.0 
366.217316 345.0 
366.364319 106.0 
527.866699 128.0 
1351.401733 130.0 
1589.599487 273.0 
END IONS

BEGIN IONS
TITLE=Scan Number: 490
PEPMASS=216.123
CHARGE=1+
MSLEVEL=2
FILENAME=E8_GE8_01_2713.mzXML
INSTRUMENT=ion trap
SCANS=490
SMILES=CC1(C)C2(C)CCC1(OC2=O)C(O)=O
INCHIKEY=KPWKPGFLZGMMFX-UHFFFAOYSA-N
74.375 239.0 
76.997108 966.0 
79.019325 169.0 
79.492203 340.0 
80.488632 230.0 
81.008957 220.0 
86.003204 714.0 
86.670029 181.0 
87.502251 206.0 
88.928017 145.0 
95.008369 2833.0 
95.032852 442.0 
95.512024 263.0 
96.004646 448.0 
96.502472 859.0 
97.005829 312.0 
98.409531 228.0 
99.004974 135.0 
99.48172 138.0 
100.978729 210.0 
103.989067 234.0 
104.015709 1749.0 
104.513588 117.0 
105.01545 275.0 
106.008331 208.0 
107.087128 155.0 
108.088539 155.0 
108.467316 225.0 
108.494308 643.0 
108.987694 220.0 
109.490685 252.0 
109.987473 179.0 
116.005112 880.0 
116.505333 814.0 
117.003784 920.0 
117.499985 2570.0 
117.999771 523.0 
118.495132 479.0 
119.05584 150.0 
119.499107 463.0 
124.542992 193.0 
125.013611 197.0 
125.094849 343.0 
125.515808 207.0 
126.008415 434.0 
126.503265 205.0 
127.507919 317.0 
128.508331 236.0 
137.973282 160.0 
138.151016 147.0 
138.495438 186.0 
138.997986 184.0 
144.070847 195.0 
146.007401 190.0 
146.509323 397.0 
147.010513 171.0 
153.090134 226.0 
157.512955 251.0 
181.081909 150.0 
200.063904 141.0 
316.704681 88.0 
END IONS

BEGIN IONS
TITLE=Scan Number: 495
PEPMASS=359.14899
CHARGE=1+
MSLEVEL=2
FILENAME=A4_RA4_01_2887.mzXML
INSTRUMENT=ion trap
SCANS=495
SMILES=COC1=CC=C2C=CC(=O)OC2=C1C3OCC(=C)C3OC(=O)CC(C)C
INCHIKEY=YUGLDRNZSJJFIK-UHFFFAOYSA-N
74.01577 244.0 
77.036011 134.0 
80.058052 238.0 
85.062126 410.0 
91.054283 2791.0 
93.070244 227.0 
98.679947 262.0 
99.043976 595.0 
103.053665 5166.0 
103.870308 110.0 
104.057045 569.0 
105.044945 1170.0 
105.070953 1164.0 
107.049042 74.0 
107.082573 181.0 
108.054649 187.0 
109.02845 237.0 
112.721436 253.0 
113.914734 211.0 
115.053444 3841.0 
115.62883 231.0 
116.06076 1298.0 
117.068848 711.0 
119.047409 1549.0 
119.08075 108.0 
119.134575 175.0 
119.322472 133.0 
120.001144 114.0 
120.051804 153.0 
121.021065 271.0 
121.067429 484.0 
123.116852 201.0 
125.757423 108.0 
126.050827 207.0 
126.193909 169.0 
127.659081 86.0 
128.061676 3106.0 
129.069366 1475.0 
130.040802 154.0 
130.072128 316.0 
130.976669 287.0 
131.007278 94.0 
131.048737 51389.0 
131.086838 632.0 
131.127563 58.0 
131.283951 71.0 
131.319214 59.0 
131.365738 184.0 
131.413177 66.0 
132.020218 884.0 
132.053329 4253.0 
132.799713 67.0 
133.028564 827.0 
133.064499 1083.0 
133.099792 172.0 
133.131882 121.0 
134.098404 93.0 
135.001404 255.0 
135.04361 722.0 
135.077835 109.0 
136.33963 173.0 
139.052048 651.0 
140.065704 528.0 
141.070145 3143.0 
142.039597 311.0 
142.07399 938.0 
143.048935 2214.0 
143.087143 359.0 
144.056183 2431.0 
144.085205 414.0 
145.037735 975.0 
145.065536 1306.0 
145.099503 210.0 
146.037903 558.0 
146.066528 152.0 
146.103317 73.0 
147.04361 2930.0 
148.048904 962.0 
148.074051 150.0 
149.063828 173.0 
150.042801 192.0 
152.06517 944.0 
153.018356 289.0 
153.067139 1299.0 
154.078598 899.0 
155.055771 1667.0 
155.085098 1580.0 
155.518372 264.0 
156.040482 162.0 
156.065704 360.0 
157.063034 1308.0 
158.073364 2554.0 
159.009079 148.0 
159.044556 25955.0 
159.079193 1426.0 
159.335129 92.0 
160.016083 1899.0 
160.047653 1337.0 
160.086975 357.0 
160.752457 133.0 
161.059448 2041.0 
161.237595 149.0 
162.065567 365.0 
162.384857 132.0 
163.031754 176.0 
165.070053 835.0 
166.077118 192.0 
168.059708 914.0 
169.034561 128.0 
169.065109 2505.0 
170.038956 153.0 
170.070618 535.0 
170.332245 180.0 
171.042206 7139.0 
172.001419 243.0 
172.048889 5000.0 
173.059875 6462.0 
173.094162 1255.0 
174.064301 395.0 
174.669769 217.0 
175.037903 10763.0 
175.423019 155.0 
176.042206 944.0 
176.079819 151.0 
177.057388 824.0 
178.026978 1253.0 
178.055222 165.0 
179.026993 195.0 
179.058167 259.0 
179.786942 209.0 
180.063766 170.0 
183.042618 623.0 
183.076691 1084.0 
184.052963 840.0 
184.081512 115.0 
185.016602 170.0 
185.058395 1514.0 
185.553665 80.0 
186.067917 3432.0 
186.935349 95.0 
187.039703 14298.0 
187.07489 3178.0 
188.007004 268.0 
188.044815 2638.0 
188.111862 87.0 
188.219238 212.0 
188.346848 77.0 
188.967743 211.0 
189.054047 39870.0 
190.057281 2579.0 
190.703613 112.0 
191.070511 335.0 
191.324738 69.0 
193.061691 192.0 
193.431793 240.0 
195.047119 353.0 
196.05069 1242.0 
197.019089 183.0 
197.056778 1508.0 
197.103226 246.0 
198.06514 3117.0 
198.944855 297.0 
199.011642 562.0 
199.038895 5330.0 
200.046921 2855.0 
200.562836 115.0 
201.053131 2646.0 
201.091644 1743.0 
202.055893 350.0 
202.974167 171.0 
203.032242 6857.0 
203.180817 157.0 
204.032852 724.0 
205.138702 87.0 
205.87973 86.0 
206.020279 604.0 
207.04187 165.0 
207.099854 104.0 
207.718506 112.0 
208.038574 155.0 
209.104172 151.0 
211.072983 1154.0 
211.109711 132.0 
212.080048 385.0 
212.583191 69.0 
213.05513 521.0 
214.061951 1426.0 
214.998627 165.0 
215.068741 6220.0 
216.078415 456.0 
216.494171 247.0 
217.085373 156.0 
217.586624 55.0 
218.858109 130.0 
223.036118 206.0 
224.044495 825.0 
225.049393 127.0 
226.048126 508.0 
227.033234 355.0 
227.068329 218.0 
228.095963 127.0 
228.732437 164.0 
228.812088 124.0 
229.039337 299.0 
229.085312 19494.0 
230.088593 2114.0 
231.003601 94.0 
231.080612 165.0 
231.104813 182.0 
231.703552 176.0 
239.05986 522.0 
239.134857 113.0 
240.074066 139.0 
240.100845 201.0 
241.04274 177.0 
241.074921 244.0 
242.056061 1731.0 
243.054855 308.0 
243.659286 57.0 
246.195709 156.0 
252.110657 102.0 
255.584305 84.0 
255.749359 74.0 
256.348358 92.0 
256.884308 213.0 
257.016937 819.0 
257.079651 36336.0 
257.326508 268.0 
258.082123 4016.0 
266.967743 56.0 
275.077942 294.0 
275.099854 341.0 
281.138977 155.0 
289.181274 152.0 
298.149994 120.0 
299.197906 198.0 
312.119629 143.0 
320.119263 255.0 
341.127472 188.0 
358.222534 136.0 
359.213531 145.0 
361.240875 248.0 
872.03186 87.0 
1792.601318 363.0 
1887.97522 179.0 
END IONS

BEGIN IONS
TITLE=Scan Number: 496
PEPMASS=376.17599
CHARGE=1+
MSLEVEL=2
FILENAME=A4_RA4_01_2887.mzXML
INSTRUMENT=ion trap
SCANS=496
SMILES=COC1=CC=C2C=CC(=O)OC2=C1C3OCC(=C)C3OC(=O)CC(C)C
INCHIKEY=YUGLDRNZSJJFIK-UHFFFAOYSA-N
70.360466 186.0 
81.069817 199.0 
82.46814 378.0 
85.061829 139.0 
88.572937 301.0 
91.056488 1166.0 
91.87149 152.0 
99.04924 686.0 
102.0467 192.0 
103.05471 2261.0 
105.044998 310.0 
105.069191 626.0 
107.01265 154.0 
107.087128 210.0 
109.072647 311.0 
110.749588 207.0 
111.392784 373.0 
114.067581 143.0 
114.856453 297.0 
115.054298 817.0 
116.060791 345.0 
116.309868 289.0 
117.072983 709.0 
117.158096 320.0 
118.038208 187.0 
119.050339 583.0 
119.083771 229.0 
119.453156 207.0 
119.771492 167.0 
121.066147 152.0 
126.094421 282.0 
128.061768 1291.0 
129.069092 1379.0 
130.076401 451.0 
130.160599 187.0 
131.006989 152.0 
131.048843 28482.0 
132.052032 2714.0 
133.028137 336.0 
133.05896 89.0 
133.212906 95.0 
135.083023 122.0 
138.068192 311.0 
140.060165 676.0 
141.069443 2132.0 
142.041428 200.0 
142.078613 598.0 
143.04837 1443.0 
143.085114 301.0 
144.056061 510.0 
144.142853 124.0 
145.064423 598.0 
145.096832 165.0 
146.034973 137.0 
146.070175 446.0 
147.04483 2960.0 
147.094467 173.0 
147.118546 102.0 
148.043732 191.0 
149.096649 135.0 
151.09613 145.0 
152.060562 462.0 
152.140823 87.0 
153.071701 184.0 
154.079285 390.0 
155.043533 187.0 
155.063202 745.0 
155.085953 1218.0 
156.088654 719.0 
157.030136 71.0 
157.064896 919.0 
158.036606 198.0 
158.069595 1564.0 
159.043991 14788.0 
159.07988 1098.0 
159.288742 183.0 
160.020493 484.0 
160.050385 1262.0 
160.080231 298.0 
161.057739 2587.0 
162.207855 116.0 
163.018326 167.0 
165.068466 1552.0 
166.074799 166.0 
167.080627 180.0 
168.029175 211.0 
168.056 1095.0 
169.070175 858.0 
169.997635 236.0 
170.069885 1041.0 
170.751083 243.0 
171.042358 1471.0 
171.079773 84.0 
171.128418 133.0 
171.225342 123.0 
171.26506 87.0 
172.053543 3098.0 
172.356689 199.0 
172.869843 152.0 
173.059341 3333.0 
173.097275 956.0 
174.056458 367.0 
175.001602 376.0 
175.03833 8252.0 
175.111389 158.0 
176.043167 110.0 
177.057358 232.0 
178.023239 424.0 
179.06102 373.0 
179.086014 197.0 
180.093369 101.0 
181.098297 535.0 
182.070679 122.0 
183.04184 281.0 
183.080322 899.0 
184.046188 198.0 
184.085739 201.0 
185.057129 754.0 
185.735886 125.0 
186.067154 844.0 
187.038513 11352.0 
187.076157 3526.0 
188.010498 135.0 
188.0383 390.0 
188.078903 375.0 
188.982559 324.0 
189.0056 667.0 
189.054138 30918.0 
189.118271 158.0 
189.159256 226.0 
189.205765 180.0 
189.506042 95.0 
190.057846 2344.0 
191.078583 186.0 
191.531906 103.0 
193.073471 247.0 
194.113785 190.0 
195.044403 417.0 
195.080734 103.0 
195.114182 165.0 
196.048264 1312.0 
196.306625 342.0 
197.015671 111.0 
197.061478 674.0 
197.130341 512.0 
198.030319 205.0 
198.064758 1513.0 
199.039597 3861.0 
199.073181 770.0 
199.774475 173.0 
199.94252 158.0 
200.00441 150.0 
200.044189 1173.0 
200.786865 142.0 
201.054459 2196.0 
201.091095 1711.0 
202.05867 303.0 
202.236816 86.0 
203.033615 4934.0 
203.074982 153.0 
203.1138 194.0 
203.574295 133.0 
205.048248 183.0 
206.02356 177.0 
207.11554 310.0 
208.045059 103.0 
209.090576 152.0 
209.129395 147.0 
211.076523 1497.0 
213.054977 603.0 
214.061966 2153.0 
215.069656 4744.0 
215.15741 353.0 
216.071548 320.0 
217.107162 125.0 
218.039703 282.0 
221.059036 178.0 
223.146271 843.0 
224.043945 617.0 
226.062866 791.0 
226.972794 178.0 
227.062408 248.0 
227.417892 230.0 
227.911636 115.0 
228.726807 111.0 
229.085251 15740.0 
230.091995 1033.0 
230.862747 90.0 
231.03566 98.0 
231.06781 134.0 
234.772186 212.0 
237.631638 119.0 
239.068161 415.0 
239.132812 127.0 
242.055023 1525.0 
242.087738 138.0 
247.09906 339.0 
255.756058 114.0 
256.396179 251.0 
256.791779 175.0 
257.080078 49232.0 
257.328125 92.0 
257.975098 183.0 
258.022583 147.0 
258.083832 5507.0 
258.508575 99.0 
259.096405 194.0 
259.212585 120.0 
259.994904 140.0 
260.216675 173.0 
263.67688 105.0 
266.136444 244.0 
269.111176 109.0 
274.656921 252.0 
275.096619 309.0 
281.190247 774.0 
316.158508 165.0 
317.234283 180.0 
332.111694 182.0 
359.220215 136.0 
376.21228 161.0 
376.300568 85.0 
377.024994 109.0 
377.269165 162.0 
1498.824829 375.0 
END IONS

BEGIN IONS
TITLE=Scan Number: 497
PEPMASS=478.26999
CHARGE=1+
MSLEVEL=2
FILENAME=A4_RA4_01_2887.mzXML
INSTRUMENT=ion trap
SCANS=497
SMILES=CC1CCN2CC34CC5(C(=O)NC6=C5C=CC7=C6C(=O)CC(C)(C)O7)C(C)(C)C3CC12C(=O)N4C
INCHIKEY=LRIXRCMMIFKCDB-UHFFFAOYSA-N
70.066902 958.0 
70.495262 81.0 
71.074249 271.0 
72.037415 52.0 
72.728523 61.0 
73.034912 226.0 
74.329903 252.0 
75.532288 291.0 
75.585724 154.0 
76.568939 413.0 
76.995636 243.0 
77.097893 96.0 
77.157234 110.0 
78.006004 81.0 
78.906265 39.0 
79.050682 577.0 
79.561165 284.0 
80.050629 566.0 
80.759758 249.0 
80.802284 178.0 
80.841766 71.0 
81.071236 964.0 
81.629448 75.0 
82.064636 1307.0 
83.050003 1108.0 
83.07299 693.0 
83.343994 127.0 
84.081505 2655.0 
84.683167 34.0 
85.036278 149.0 
85.083916 134.0 
85.357246 273.0 
85.776245 139.0 
86.325127 179.0 
87.101929 186.0 
87.455711 225.0 
87.985336 290.0 
88.585258 161.0 
89.495049 61.0 
89.690926 174.0 
92.15419 58.0 
93.071579 1193.0 
93.584351 114.0 
93.6875 370.0 
94.036217 56.0 
94.065025 1761.0 
94.689445 313.0 
95.050766 498.0 
95.083603 1044.0 
95.196495 251.0 
96.046242 182.0 
96.081024 6379.0 
96.966408 123.0 
97.01899 252.0 
97.065346 942.0 
97.087852 2126.0 
97.192627 280.0 
97.276672 40.0 
97.32534 112.0 
97.764931 218.0 
98.096642 3534.0 
98.187592 205.0 
98.391609 143.0 
99.382584 170.0 
100.036209 101.0 
100.075371 303.0 
101.039375 222.0 
101.234161 176.0 
101.698761 231.0 
103.055107 185.0 
104.049606 298.0 
104.977142 96.0 
105.045029 449.0 
105.068649 1005.0 
105.876862 75.0 
106.017387 165.0 
106.062073 1322.0 
106.515877 240.0 
107.072556 1134.0 
107.085342 1479.0 
107.310234 272.0 
107.471298 251.0 
108.08091 6014.0 
108.1511 32.0 
108.29464 356.0 
108.360298 124.0 
109.087234 2029.0 
109.844467 26.0 
110.04232 159.0 
110.060699 2103.0 
110.096756 9694.0 
110.15757 29.0 
110.176659 77.0 
110.646309 115.0 
111.065285 124.0 
111.101982 1664.0 
111.829285 284.0 
112.073982 433.0 
112.112473 563.0 
112.253937 212.0 
112.47052 273.0 
112.622795 259.0 
112.715714 67.0 
112.98967 267.0 
113.109093 480.0 
114.114311 124.0 
114.590668 129.0 
116.036125 195.0 
116.990387 59.0 
117.017036 253.0 
117.070869 398.0 
118.064384 485.0 
118.38092 229.0 
118.833855 38.0 
119.059357 425.0 
119.087532 742.0 
119.326553 41.0 
119.433441 226.0 
119.535576 117.0 
120.080299 4886.0 
120.516479 200.0 
121.03643 188.0 
121.089363 4532.0 
121.491737 92.0 
121.906548 156.0 
121.946358 41.0 
122.056778 333.0 
122.095108 9257.0 
122.154984 169.0 
122.738556 111.0 
123.105263 3691.0 
123.96994 31.0 
124.07502 1212.0 
124.112183 1890.0 
124.21994 195.0 
124.257278 188.0 
124.28196 287.0 
125.071877 304.0 
125.485825 224.0 
125.844467 250.0 
126.092392 503.0 
126.128395 188.0 
126.710854 102.0 
126.811157 251.0 
127.094254 134.0 
128.046753 157.0 
128.109161 355.0 
128.986176 182.0 
129.287872 165.0 
129.353943 204.0 
130.06282 428.0 
130.093399 172.0 
130.122253 310.0 
131.074326 1398.0 
131.121613 131.0 
132.04425 889.0 
132.078491 2356.0 
132.62645 257.0 
132.796387 104.0 
133.088394 3451.0 
133.361877 141.0 
134.020905 466.0 
134.095993 11768.0 
134.902145 141.0 
135.102875 5013.0 
135.366333 267.0 
135.543839 130.0 
136.041519 255.0 
136.074814 903.0 
136.111282 6242.0 
136.229813 66.0 
136.368973 181.0 
136.485809 243.0 
137.081329 347.0 
137.11377 2226.0 
137.767242 179.0 
137.933701 106.0 
138.086533 1066.0 
138.122284 865.0 
138.224411 157.0 
139.054214 123.0 
139.116745 473.0 
140.061111 113.0 
140.107727 763.0 
140.134247 207.0 
141.100769 2399.0 
141.161423 97.0 
141.17804 83.0 
141.537842 122.0 
142.116699 116.0 
142.398499 187.0 
143.076523 136.0 
143.122055 133.0 
144.079926 130.0 
144.098221 215.0 
144.375641 92.0 
145.095291 714.0 
145.330338 181.0 
145.422729 124.0 
146.063797 687.0 
146.096451 4961.0 
146.585632 77.0 
146.677872 150.0 
146.965698 161.0 
147.080093 1634.0 
147.105438 5560.0 
147.252838 119.0 
147.381073 156.0 
147.58075 293.0 
147.687332 41.0 
147.794403 273.0 
147.857132 112.0 
147.966629 117.0 
148.026703 179.0 
148.076874 2355.0 
148.11171 44693.0 
148.168518 158.0 
148.18425 358.0 
148.223846 92.0 
148.320663 44.0 
148.451797 30.0 
148.525497 111.0 
148.600662 50.0 
148.68605 293.0 
148.793503 296.0 
148.826843 210.0 
149.050552 136.0 
149.11557 8543.0 
149.561111 266.0 
149.612061 160.0 
149.907257 18.0 
149.941727 82.0 
150.091599 3175.0 
150.127136 30634.0 
150.179352 66.0 
150.277359 257.0 
150.355087 104.0 
150.45871 133.0 
150.503693 310.0 
150.541977 44.0 
150.582733 321.0 
150.860855 131.0 
150.934113 112.0 
151.086395 17762.0 
151.132553 35459.0 
151.183258 35.0 
151.24585 134.0 
151.364716 149.0 
151.399185 224.0 
151.44342 102.0 
151.592545 176.0 
151.658127 56.0 
151.716095 175.0 
151.758041 185.0 
151.785278 154.0 
151.889526 268.0 
152.005478 132.0 
152.028397 199.0 
152.061874 298.0 
152.094788 2826.0 
152.143112 82310.0 
152.202011 128.0 
152.259354 206.0 
152.343338 300.0 
152.376419 162.0 
152.587921 101.0 
152.720505 84.0 
153.036469 256.0 
153.064285 82.0 
153.10231 5463.0 
153.14595 5803.0 
153.173309 231.0 
153.286652 84.0 
153.384338 197.0 
153.799911 166.0 
153.835999 28.0 
153.971893 39.0 
154.106567 30.0 
154.158463 3570.0 
154.353668 145.0 
154.458328 104.0 
155.11174 57.0 
155.209152 222.0 
155.37587 74.0 
155.752365 118.0 
156.080917 315.0 
156.124557 233.0 
157.031723 196.0 
157.087738 188.0 
157.190643 147.0 
157.994965 83.0 
158.060593 129.0 
158.081787 288.0 
158.331741 170.0 
158.385666 151.0 
158.518494 132.0 
158.850204 79.0 
158.966812 379.0 
159.100464 1103.0 
159.207336 154.0 
159.322662 68.0 
160.037811 322.0 
160.07666 470.0 
160.111465 5532.0 
160.460602 353.0 
160.510696 177.0 
160.522339 165.0 
160.67775 163.0 
160.838165 323.0 
161.046417 279.0 
161.080902 447.0 
161.118896 23201.0 
161.829086 221.0 
161.940796 167.0 
162.015839 1229.0 
162.051041 207.0 
162.093872 2187.0 
162.127121 6181.0 
162.466034 70.0 
162.513718 103.0 
162.975037 190.0 
163.025314 173.0 
163.088928 3515.0 
163.123322 7598.0 
163.195648 26.0 
163.242813 189.0 
163.346649 30.0 
163.388611 110.0 
163.793991 96.0 
163.87619 181.0 
164.094269 1934.0 
164.142181 18694.0 
164.223114 50.0 
164.46347 122.0 
164.760345 116.0 
164.873184 296.0 
165.050354 534.0 
165.101196 18503.0 
165.146576 3161.0 
165.17807 227.0 
165.289276 75.0 
165.368515 212.0 
165.482559 18.0 
165.575836 109.0 
165.73024 291.0 
166.061249 398.0 
166.109131 33594.0 
166.158005 5550.0 
166.243927 19.0 
166.821838 74.0 
167.110229 2379.0 
167.156586 830.0 
167.492081 80.0 
167.535721 168.0 
167.596817 65.0 
167.920685 27.0 
168.043701 197.0 
168.080017 104.0 
168.11467 69.0 
168.143341 104.0 
168.175491 189.0 
168.220078 82.0 
168.278137 18.0 
168.413071 177.0 
168.456894 133.0 
168.524155 174.0 
168.563736 315.0 
168.757095 238.0 
168.941391 138.0 
169.086395 130.0 
169.337387 61.0 
170.049057 205.0 
170.093887 291.0 
171.111145 467.0 
171.772446 244.0 
171.836746 240.0 
172.04213 481.0 
172.064911 330.0 
172.10878 1781.0 
172.704834 90.0 
172.868027 39.0 
172.915939 114.0 
172.94577 84.0 
173.04213 251.0 
173.0905 211.0 
173.119705 1585.0 
173.322418 38.0 
173.577972 46.0 
173.699966 213.0 
173.943542 56.0 
174.017914 6295.0 
174.054214 635.0 
174.093033 832.0 
174.127808 22645.0 
174.233246 273.0 
174.31015 99.0 
174.366714 132.0 
174.388077 27.0 
174.506317 57.0 
175.021347 549.0 
175.134399 13734.0 
175.278839 201.0 
175.42923 95.0 
175.545151 90.0 
175.598938 257.0 
175.721497 197.0 
175.795715 22.0 
175.8535 142.0 
175.941772 182.0 
175.970093 115.0 
176.034058 1003.0 
176.072678 305.0 
176.143188 114393.0 
176.187485 275.0 
176.234451 452.0 
176.307999 226.0 
176.355408 54.0 
176.371735 73.0 
176.867523 19.0 
176.942184 271.0 
177.051544 179.0 
177.103302 2558.0 
177.143814 20236.0 
177.319595 20.0 
177.340012 76.0 
177.436325 77.0 
177.707413 51.0 
177.91745 59.0 
178.045822 111.0 
178.113083 7798.0 
178.153885 4521.0 
178.415634 58.0 
178.541824 121.0 
178.575516 126.0 
178.600784 162.0 
178.643768 118.0 
179.117966 9585.0 
179.15419 1368.0 
179.405914 98.0 
179.778198 121.0 
180.030914 684.0 
180.121384 1057.0 
180.469315 159.0 
180.696457 40.0 
181.033524 221.0 
181.084869 169.0 
181.126633 255.0 
181.181274 163.0 
181.387268 408.0 
182.487503 124.0 
182.543686 175.0 
183.050629 262.0 
183.203766 168.0 
184.04274 402.0 
184.113602 207.0 
185.061844 376.0 
185.117523 371.0 
185.165421 145.0 
185.360016 112.0 
186.056046 1579.0 
186.082031 382.0 
186.12645 4385.0 
186.250183 73.0 
186.411942 20.0 
187.016724 96.0 
187.103394 1374.0 
187.133743 3899.0 
187.286911 174.0 
187.370926 276.0 
187.590149 122.0 
188.03389 47743.0 
188.077591 785.0 
188.142746 70019.0 
188.498062 109.0 
188.678314 177.0 
188.952744 109.0 
188.971344 196.0 
188.990356 215.0 
189.037613 3857.0 
189.066528 756.0 
189.149063 16968.0 
189.350754 99.0 
189.398849 75.0 
189.552902 29.0 
189.8638 93.0 
190.04364 901.0 
190.088379 189.0 
190.123444 1010.0 
190.158356 9446.0 
190.360764 136.0 
190.413712 110.0 
190.574219 56.0 
190.671814 40.0 
190.787735 115.0 
191.120926 1397.0 
191.159683 2565.0 
191.520767 18.0 
191.688385 173.0 
191.759003 37.0 
191.798111 264.0 
192.028366 13763.0 
192.065018 112.0 
192.103485 145.0 
192.132172 1782.0 
192.17218 1284.0 
192.41098 126.0 
192.930283 176.0 
193.032013 1357.0 
193.070404 158.0 
193.102737 163.0 
193.136597 637.0 
193.172134 164.0 
193.557709 107.0 
193.804123 26.0 
193.880005 275.0 
194.034637 604.0 
194.15715 717.0 
194.177673 706.0 
194.484253 190.0 
194.612076 184.0 
195.157181 74.0 
195.235825 79.0 
195.292328 229.0 
195.53862 30.0 
196.20311 148.0 
196.928375 142.0 
197.067734 353.0 
198.087189 392.0 
198.124023 85.0 
198.373734 89.0 
198.538269 333.0 
198.734482 181.0 
199.0867 184.0 
199.149857 199.0 
199.240326 168.0 
199.666214 204.0 
199.890747 223.0 
200.033798 5052.0 
200.072678 646.0 
200.129242 676.0 
200.263107 177.0 
200.697891 146.0 
201.033356 387.0 
201.065948 1563.0 
201.135971 132.0 
201.776169 66.0 
201.816772 185.0 
202.049301 1520.0 
202.076706 484.0 
202.122162 1343.0 
202.161591 258.0 
202.259567 170.0 
202.465225 171.0 
203.047134 287.0 
203.088531 311.0 
203.124908 149.0 
203.165634 185.0 
203.543549 375.0 
204.107346 676.0 
204.136215 2448.0 
204.231125 191.0 
204.358276 57.0 
204.542236 189.0 
204.932587 248.0 
205.048584 61.0 
205.105164 214.0 
205.148148 2382.0 
205.167618 2834.0 
205.251114 94.0 
205.384918 209.0 
205.411774 235.0 
205.633911 91.0 
205.723541 130.0 
205.942291 290.0 
205.96698 85.0 
206.043625 18202.0 
206.110489 206.0 
206.171524 2412.0 
206.393326 179.0 
206.617889 27.0 
206.713379 124.0 
207.049545 1649.0 
207.184494 18002.0 
207.396042 163.0 
207.724655 55.0 
208.016693 198.0 
208.05426 221.0 
208.14949 92.0 
208.186874 2917.0 
208.333557 45.0 
208.726425 74.0 
209.148544 95.0 
209.372589 153.0 
209.588531 55.0 
210.09024 338.0 
210.479538 234.0 
210.821487 272.0 
210.972626 117.0 
211.103958 818.0 
211.13649 153.0 
211.988007 195.0 
212.034912 3906.0 
212.067764 597.0 
212.113129 67.0 
212.969238 146.0 
213.035873 626.0 
213.063644 1288.0 
213.196716 425.0 
214.048752 4968.0 
214.149185 302.0 
215.047729 1168.0 
215.07457 3192.0 
215.158066 108.0 
215.59462 202.0 
215.792587 177.0 
216.06723 2507.0 
216.13884 1306.0 
216.474564 296.0 
217.06459 508.0 
217.096863 941.0 
217.137985 539.0 
217.171814 243.0 
217.294357 75.0 
217.504517 239.0 
217.62088 208.0 
217.647064 426.0 
217.938324 86.0 
218.044083 4604.0 
218.079224 4468.0 
218.116989 176.0 
218.158325 1097.0 
218.18866 245.0 
218.623734 19.0 
219.050644 1037.0 
219.078232 827.0 
219.118652 203.0 
219.185989 7500.0 
219.248749 126.0 
219.93042 163.0 
220.037674 272.0 
220.058014 206.0 
220.146988 534.0 
220.191147 4881.0 
220.31575 131.0 
220.98848 248.0 
221.176483 535.0 
221.205231 564.0 
221.323685 29.0 
221.391754 340.0 
221.622055 180.0 
221.803909 45.0 
222.089569 507.0 
222.209488 137.0 
222.288528 144.0 
222.632889 65.0 
222.714935 160.0 
223.037155 214.0 
223.063324 521.0 
223.106232 230.0 
223.296188 181.0 
224.026093 324.0 
224.058975 251.0 
224.96637 185.0 
225.039932 251.0 
225.068665 287.0 
225.096817 118.0 
226.051254 1345.0 
226.090775 524.0 
227.046829 2034.0 
227.090775 241.0 
228.049957 692.0 
228.102203 4231.0 
228.139145 725.0 
228.335007 225.0 
228.814392 126.0 
229.071106 988.0 
229.093552 806.0 
229.258575 209.0 
229.633087 130.0 
229.710068 246.0 
229.875519 67.0 
229.981674 193.0 
230.010071 325.0 
230.044678 4533.0 
230.080627 26026.0 
230.125351 790.0 
230.152359 375.0 
230.234329 115.0 
230.332458 43.0 
230.443741 48.0 
230.495682 223.0 
230.522537 67.0 
230.702423 303.0 
231.015259 35.0 
231.04837 543.0 
231.086517 3779.0 
231.119858 396.0 
231.153275 263.0 
231.418991 96.0 
231.659882 98.0 
231.957901 155.0 
232.008743 88.0 
232.05928 4221.0 
232.092529 2149.0 
232.126297 209.0 
232.342789 114.0 
232.675827 21.0 
232.724899 188.0 
232.818604 70.0 
233.059143 538.0 
233.101837 489.0 
233.156448 24.0 
233.183685 279.0 
234.555893 263.0 
234.774429 105.0 
234.91301 177.0 
235.074249 108.0 
235.098099 205.0 
235.17952 3477.0 
235.290939 251.0 
235.818085 229.0 
235.879593 147.0 
236.104202 310.0 
236.181747 505.0 
237.206024 110.0 
237.368835 183.0 
237.95694 72.0 
238.083664 1743.0 
238.124863 299.0 
239.085678 695.0 
239.331802 126.0 
240.065903 2175.0 
240.116318 227.0 
240.600143 153.0 
240.729309 70.0 
240.924805 191.0 
241.059662 8460.0 
241.462631 108.0 
241.877853 194.0 
241.912949 64.0 
241.976257 93.0 
242.078918 1602.0 
242.118484 2203.0 
242.433853 52.0 
242.546219 132.0 
242.599258 45.0 
243.007675 160.0 
243.076279 33778.0 
243.134048 211.0 
243.343719 195.0 
243.398453 224.0 
243.427353 109.0 
243.708252 201.0 
243.812988 72.0 
243.894257 26.0 
243.935867 203.0 
244.030792 419.0 
244.0961 93027.0 
244.133713 453.0 
244.225388 138.0 
244.41333 46.0 
244.488953 189.0 
244.693298 175.0 
245.053345 1096.0 
245.099625 13644.0 
245.867157 40.0 
245.913208 168.0 
245.9841 78.0 
246.069794 674.0 
246.098297 773.0 
246.428986 66.0 
246.647034 127.0 
246.942368 30.0 
246.995514 164.0 
247.029984 44.0 
247.072296 247.0 
247.10582 212.0 
247.175827 810.0 
247.839783 260.0 
248.070923 355.0 
248.102997 203.0 
248.172882 207.0 
248.722427 194.0 
249.065323 171.0 
249.202881 175.0 
250.085403 461.0 
250.122772 300.0 
251.017334 135.0 
251.061035 794.0 
251.12207 109.0 
251.432037 69.0 
251.817505 222.0 
252.055756 223.0 
252.104111 560.0 
252.149429 556.0 
252.462921 116.0 
253.017685 177.0 
253.071457 278.0 
253.100845 274.0 
253.356766 259.0 
253.560089 229.0 
253.900864 124.0 
254.079071 3486.0 
254.302933 128.0 
254.552689 59.0 
255.087402 1108.0 
255.112595 987.0 
255.832855 154.0 
256.015381 288.0 
256.097351 9156.0 
256.232178 285.0 
256.281738 92.0 
257.103943 2635.0 
257.127441 3644.0 
257.19577 27.0 
257.916138 74.0 
257.988617 112.0 
258.108276 2324.0 
258.545898 169.0 
258.752014 79.0 
258.828583 290.0 
258.984955 25.0 
259.069824 1943.0 
259.118927 128.0 
259.172913 172.0 
259.486603 186.0 
259.568054 195.0 
259.787628 122.0 
260.07016 349.0 
260.182251 326.0 
260.423279 33.0 
260.577148 90.0 
260.648834 504.0 
260.825012 159.0 
261.033264 158.0 
261.085846 10229.0 
261.128998 164.0 
261.525879 154.0 
262.103058 942.0 
262.231903 230.0 
262.552765 58.0 
262.816284 92.0 
263.094055 357.0 
263.637878 107.0 
264.061737 778.0 
264.10257 670.0 
264.177216 19.0 
264.299377 121.0 
265.085388 223.0 
265.121796 132.0 
265.190887 95.0 
265.66449 232.0 
266.080017 15111.0 
266.140869 71.0 
266.443848 128.0 
266.969543 247.0 
267.0849 2887.0 
267.119202 1119.0 
267.470123 104.0 
267.563629 119.0 
267.888794 182.0 
268.035156 393.0 
268.095703 19823.0 
268.130035 1917.0 
268.567017 103.0 
268.742615 167.0 
268.848145 57.0 
269.05365 156.0 
269.097626 4277.0 
269.130981 2126.0 
269.199951 258.0 
269.548065 72.0 
269.670349 269.0 
269.773712 88.0 
269.910339 325.0 
270.036743 374.0 
270.111938 7221.0 
271.113129 1707.0 
271.14032 1455.0 
271.224762 40.0 
271.352112 265.0 
271.438446 94.0 
271.530304 26.0 
271.687225 69.0 
271.938354 240.0 
272.094727 533.0 
272.127136 6702.0 
273.07962 398.0 
273.131866 2075.0 
273.811646 158.0 
275.452972 251.0 
275.709808 359.0 
275.905914 195.0 
276.026947 263.0 
276.067291 346.0 
276.10257 461.0 
276.141785 163.0 
276.823486 247.0 
276.910858 108.0 
277.081421 94.0 
278.076843 811.0 
278.114105 499.0 
278.544189 222.0 
279.112793 1893.0 
280.024902 178.0 
280.106476 911.0 
280.495697 86.0 
280.526978 204.0 
280.569336 96.0 
281.07016 442.0 
281.125397 2416.0 
281.241119 195.0 
281.917358 114.0 
282.112244 9938.0 
282.148712 764.0 
282.297943 191.0 
282.360229 141.0 
282.801392 350.0 
283.106812 7962.0 
283.154724 224.0 
283.373718 221.0 
283.654999 232.0 
283.811859 124.0 
283.962433 178.0 
284.095703 4763.0 
285.092987 1323.0 
285.122467 3840.0 
285.225708 99.0 
285.273956 172.0 
286.031403 80.0 
286.083557 192.0 
286.129486 1261.0 
286.217773 107.0 
286.691711 74.0 
286.773834 289.0 
287.136993 665.0 
287.169128 90.0 
287.209564 114.0 
287.75058 114.0 
288.109161 184.0 
288.14679 468.0 
288.552612 138.0 
288.875946 66.0 
289.065765 246.0 
289.114777 252.0 
289.48526 292.0 
290.507996 263.0 
291.126434 354.0 
291.300018 96.0 
291.511505 115.0 
291.604706 244.0 
291.704712 233.0 
291.759735 193.0 
292.11676 2164.0 
292.160431 56.0 
292.946564 162.0 
293.090637 1459.0 
293.130829 1112.0 
293.207367 103.0 
293.232635 157.0 
293.971619 248.0 
294.033447 224.0 
294.072174 195.0 
294.104736 490.0 
294.14856 991.0 
295.017029 197.0 
295.072662 508.0 
295.106232 1594.0 
295.129364 1386.0 
295.156006 1159.0 
295.978333 197.0 
296.047485 115.0 
296.086792 856.0 
296.123535 2152.0 
296.169586 530.0 
296.927063 184.0 
297.03537 79.0 
297.123077 15223.0 
297.226654 236.0 
297.330292 115.0 
297.392181 231.0 
298.055267 159.0 
298.130859 11165.0 
298.258545 185.0 
298.327545 18.0 
298.456543 175.0 
298.626526 106.0 
298.760864 74.0 
298.820526 100.0 
298.868103 137.0 
299.049896 415.0 
299.138794 63856.0 
299.231781 77.0 
299.309113 177.0 
299.381409 62.0 
299.437683 30.0 
299.6492 95.0 
299.922821 141.0 
300.141785 14781.0 
300.270203 247.0 
300.41095 200.0 
300.507385 34.0 
301.148621 1649.0 
301.286469 132.0 
301.328827 173.0 
302.132324 565.0 
302.159058 577.0 
302.303955 188.0 
302.344452 188.0 
302.398407 67.0 
302.644623 103.0 
302.966888 270.0 
303.111206 317.0 
304.054108 147.0 
304.092834 846.0 
304.13855 289.0 
304.289124 30.0 
304.503571 57.0 
304.721161 243.0 
305.092163 122.0 
305.140961 266.0 
305.65686 150.0 
306.018677 505.0 
306.075928 143.0 
306.110931 1276.0 
306.145782 1144.0 
306.979248 230.0 
307.009094 85.0 
307.108276 2796.0 
307.152863 315.0 
307.686768 217.0 
308.126953 1334.0 
308.156616 505.0 
308.496338 209.0 
308.789948 42.0 
309.09256 99.0 
309.131653 1715.0 
309.463409 194.0 
309.778229 76.0 
309.954712 312.0 
309.996338 68.0 
310.077332 156.0 
310.142365 6862.0 
310.186401 978.0 
310.585632 285.0 
311.144562 2931.0 
311.803558 251.0 
312.118988 139.0 
312.156891 1786.0 
313.119385 261.0 
313.157043 587.0 
313.24115 77.0 
314.13443 145.0 
315.134918 1919.0 
315.317627 182.0 
315.625946 28.0 
315.9758 109.0 
316.087463 179.0 
316.147125 229.0 
316.311951 245.0 
316.613953 120.0 
317.093079 209.0 
317.132599 179.0 
317.165741 191.0 
318.114777 326.0 
318.140411 314.0 
319.095245 281.0 
319.14386 877.0 
319.306549 277.0 
320.118073 3220.0 
320.184052 665.0 
320.358734 106.0 
320.423492 236.0 
321.087372 666.0 
321.119904 2633.0 
321.193176 202.0 
321.246002 130.0 
321.395782 281.0 
321.43689 77.0 
321.752045 155.0 
322.141846 16285.0 
322.302765 70.0 
322.478119 127.0 
322.515778 113.0 
322.575409 482.0 
322.774017 233.0 
322.935944 163.0 
323.146179 4816.0 
324.133942 1873.0 
324.154053 1603.0 
324.894775 27.0 
325.013916 183.0 
325.117126 897.0 
325.148163 1412.0 
325.187897 675.0 
325.417999 64.0 
325.508545 109.0 
326.068695 24.0 
326.142548 671.0 
326.183929 298.0 
326.585022 222.0 
327.123596 242.0 
328.134644 168.0 
328.166565 58.0 
328.231354 156.0 
329.229187 70.0 
330.125031 376.0 
330.762634 59.0 
330.825836 183.0 
332.138214 663.0 
333.121735 339.0 
333.169617 371.0 
333.909973 436.0 
334.08194 139.0 
334.125519 1012.0 
334.767365 137.0 
335.137726 1701.0 
335.172363 2270.0 
335.687927 75.0 
336.103973 186.0 
336.161377 2597.0 
336.465637 88.0 
336.641724 19.0 
336.879669 277.0 
337.08252 505.0 
337.150757 1843.0 
337.296051 168.0 
338.105988 395.0 
338.171844 5205.0 
338.866486 131.0 
339.107147 334.0 
339.170593 2365.0 
339.335876 82.0 
339.55014 205.0 
340.12381 136.0 
340.176086 558.0 
340.287079 162.0 
340.358795 47.0 
341.173981 196.0 
341.196198 197.0 
342.175415 228.0 
343.150024 112.0 
344.092896 203.0 
344.149323 164.0 
344.425568 84.0 
344.477142 125.0 
344.657318 28.0 
345.159515 2723.0 
345.235046 174.0 
345.461304 218.0 
346.143829 1515.0 
346.300201 203.0 
346.620026 36.0 
347.141907 1072.0 
347.177429 1075.0 
347.411163 101.0 
348.068604 197.0 
348.090424 196.0 
348.142609 1278.0 
348.173096 724.0 
348.837219 143.0 
348.95462 154.0 
349.070801 47.0 
349.156952 2046.0 
350.107727 871.0 
350.163635 2173.0 
350.242279 125.0 
350.895721 55.0 
350.980286 76.0 
351.133118 961.0 
351.170105 2207.0 
351.718109 118.0 
352.027374 28.0 
352.077209 429.0 
352.130432 1708.0 
352.175751 888.0 
352.26651 322.0 
352.797211 168.0 
352.968781 113.0 
353.03714 208.0 
353.07135 148.0 
353.114624 904.0 
353.184937 57116.0 
353.654236 100.0 
353.861389 77.0 
353.945007 127.0 
354.074646 155.0 
354.145874 802.0 
354.18924 13144.0 
354.563019 143.0 
355.124023 343.0 
355.191467 1343.0 
355.882782 36.0 
356.184479 50.0 
356.457458 253.0 
356.635529 25.0 
356.876221 109.0 
357.141235 400.0 
357.163391 402.0 
357.583252 52.0 
357.635498 80.0 
358.172699 217.0 
358.48526 85.0 
359.118866 400.0 
359.172699 1273.0 
359.280457 121.0 
360.115387 371.0 
360.15033 472.0 
360.199829 213.0 
360.252014 248.0 
361.153107 2485.0 
361.538574 122.0 
361.957886 116.0 
361.990936 236.0 
362.166565 2099.0 
362.285736 125.0 
362.865601 43.0 
363.017273 131.0 
363.170898 16904.0 
363.217834 326.0 
363.367249 177.0 
363.447113 65.0 
363.630951 74.0 
363.783386 217.0 
363.820282 168.0 
363.89502 116.0 
364.17453 6007.0 
364.330719 52.0 
364.854187 200.0 
365.143646 1261.0 
365.182404 1441.0 
365.32193 18.0 
365.872406 51.0 
366.188538 1367.0 
366.313477 66.0 
367.152924 299.0 
367.196899 356.0 
367.509827 137.0 
367.937531 108.0 
368.223969 402.0 
368.411591 300.0 
368.75592 138.0 
369.128632 151.0 
369.185791 396.0 
370.136444 142.0 
370.329163 39.0 
371.171295 99.0 
371.424713 379.0 
372.011597 176.0 
372.187653 442.0 
372.478668 418.0 
372.702271 80.0 
372.805328 60.0 
373.152313 453.0 
373.217346 175.0 
374.049072 205.0 
374.144745 201.0 
374.190094 381.0 
374.214844 350.0 
374.321503 72.0 
374.40274 202.0 
374.899384 106.0 
375.177277 2234.0 
375.206726 2004.0 
376.17865 18277.0 
376.415863 134.0 
376.870239 264.0 
376.94928 124.0 
377.039673 172.0 
377.184662 9121.0 
377.268494 210.0 
377.354858 231.0 
377.844727 205.0 
378.125305 388.0 
378.155914 592.0 
378.188995 1863.0 
378.213043 1601.0 
378.55835 59.0 
379.171509 1448.0 
379.476959 126.0 
379.586426 91.0 
379.673431 18.0 
379.769104 133.0 
380.196533 11874.0 
380.445496 64.0 
380.914001 102.0 
381.195679 2579.0 
381.454102 31.0 
381.787567 146.0 
382.202667 696.0 
382.355194 89.0 
383.18338 544.0 
383.447113 104.0 
383.524872 52.0 
383.636993 37.0 
383.835602 78.0 
384.071899 103.0 
384.16095 241.0 
384.221222 143.0 
385.192383 902.0 
385.719391 299.0 
386.146118 106.0 
386.183899 485.0 
386.22583 174.0 
386.479675 70.0 
387.172211 411.0 
387.202759 638.0 
388.148712 731.0 
388.172363 737.0 
388.592865 107.0 
388.744415 173.0 
389.113129 172.0 
389.184937 1266.0 
389.227692 314.0 
389.532562 237.0 
389.571075 64.0 
390.167328 811.0 
390.201294 1401.0 
390.250397 189.0 
391.030945 124.0 
391.16449 3564.0 
391.199982 1573.0 
391.238403 1288.0 
392.088409 259.0 
392.163727 2471.0 
392.249603 321.0 
392.861328 188.0 
393.17984 6555.0 
393.830353 184.0 
394.072968 155.0 
394.177155 3281.0 
394.21051 6957.0 
394.508667 183.0 
394.746429 85.0 
395.221191 4428.0 
396.163818 86.0 
396.195984 218.0 
396.234375 804.0 
397.23642 187.0 
397.30603 151.0 
399.168549 151.0 
399.201996 138.0 
400.181366 250.0 
401.074127 97.0 
401.222595 6427.0 
401.356506 79.0 
401.750946 37.0 
401.824921 157.0 
402.008698 261.0 
402.219513 2249.0 
403.125946 231.0 
403.201141 1408.0 
403.250366 220.0 
403.650055 267.0 
403.710754 355.0 
403.852692 201.0 
404.02832 149.0 
404.13559 138.0 
404.205048 2382.0 
404.88501 117.0 
405.179962 1228.0 
405.216827 533.0 
405.458435 137.0 
406.01825 216.0 
406.186707 583.0 
406.219238 153.0 
406.413635 144.0 
406.692444 200.0 
406.791168 227.0 
406.912659 161.0 
407.115784 123.0 
407.181824 5267.0 
407.232605 8089.0 
407.412659 440.0 
407.664093 140.0 
408.085022 151.0 
408.118744 293.0 
408.192322 9899.0 
408.233002 2676.0 
408.458801 38.0 
408.631531 241.0 
408.799164 28.0 
409.198151 1263.0 
409.244873 927.0 
409.302399 30.0 
409.359528 38.0 
409.468292 171.0 
410.120819 82.0 
410.196381 440.0 
410.255188 119.0 
410.612396 163.0 
410.675934 25.0 
410.874176 95.0 
410.924988 173.0 
411.835297 25.0 
412.187164 97.0 
412.222046 667.0 
412.297943 408.0 
412.449188 40.0 
414.07074 203.0 
415.202362 105.0 
415.261749 237.0 
415.600555 34.0 
416.206421 83.0 
416.569946 84.0 
416.714966 204.0 
417.217834 7566.0 
417.389862 27.0 
417.463043 97.0 
417.540558 253.0 
417.75946 200.0 
417.932068 244.0 
418.160217 110.0 
418.219849 2811.0 
418.387604 91.0 
418.69632 191.0 
418.743408 211.0 
418.78833 99.0 
418.862366 30.0 
418.996521 200.0 
419.06134 400.0 
419.122925 1223.0 
419.232513 96298.0 
419.336304 318.0 
419.361237 258.0 
419.479156 109.0 
419.56192 43.0 
419.595306 62.0 
419.626373 42.0 
419.705872 44.0 
419.798798 247.0 
419.840576 102.0 
419.889465 67.0 
420.074799 106.0 
420.234131 24675.0 
420.333557 61.0 
420.606689 25.0 
420.670776 152.0 
420.756439 95.0 
420.883026 150.0 
421.027863 375.0 
421.144531 187.0 
421.210052 4105.0 
421.2453 4811.0 
421.321777 48.0 
421.361694 231.0 
421.485748 170.0 
421.598877 27.0 
421.658508 102.0 
421.838959 161.0 
421.890778 99.0 
421.968414 58.0 
422.056946 147.0 
422.092773 331.0 
422.207184 83416.0 
422.443848 260.0 
422.550629 337.0 
422.601166 32.0 
422.670197 226.0 
422.77298 58.0 
422.857544 46.0 
422.915558 345.0 
422.951508 335.0 
423.078918 174.0 
423.136719 612.0 
423.210022 19447.0 
423.303009 301.0 
423.42572 99.0 
423.725311 56.0 
423.801849 38.0 
423.934723 69.0 
424.148743 129.0 
424.213531 2067.0 
425.168701 111.0 
425.393158 73.0 
425.628906 162.0 
425.914978 43.0 
426.077148 40.0 
426.279907 341.0 
426.971069 109.0 
427.519684 86.0 
427.732269 122.0 
427.897064 30.0 
428.309845 268.0 
428.520386 98.0 
428.796478 355.0 
428.813599 321.0 
429.215973 115.0 
429.266296 219.0 
430.22052 84.0 
430.502197 62.0 
431.197571 216.0 
431.735413 220.0 
431.860535 200.0 
431.941223 293.0 
432.234863 385.0 
432.267975 477.0 
432.400696 241.0 
432.833466 72.0 
433.094147 226.0 
433.210693 536.0 
433.26001 964.0 
433.431519 88.0 
433.631165 257.0 
434.058594 157.0 
434.100098 97.0 
434.244934 707.0 
434.488556 271.0 
435.18335 137.0 
435.234161 538.0 
435.371918 99.0 
435.653778 38.0 
435.757965 211.0 
436.215363 146.0 
436.266479 274.0 
436.915894 250.0 
438.221985 169.0 
438.574615 85.0 
439.105804 162.0 
439.51178 108.0 
439.929352 170.0 
440.15741 771.0 
440.217865 8000.0 
440.912811 103.0 
441.067627 70.0 
441.099274 117.0 
441.149261 271.0 
441.220673 2458.0 
441.635681 75.0 
441.882812 193.0 
441.913544 184.0 
442.220093 176.0 
442.279755 46.0 
442.440186 117.0 
442.596405 153.0 
442.652313 348.0 
443.049927 93.0 
443.260773 130.0 
443.747131 131.0 
444.021698 301.0 
444.134888 221.0 
445.301514 234.0 
445.685089 137.0 
445.892914 140.0 
446.406555 170.0 
446.590942 87.0 
447.057983 150.0 
447.227966 6596.0 
447.313477 227.0 
447.394897 180.0 
447.741028 70.0 
447.775421 49.0 
447.867859 255.0 
448.081207 324.0 
448.170715 157.0 
448.229156 5056.0 
448.354156 116.0 
448.598419 64.0 
449.069733 120.0 
449.149384 327.0 
449.243073 10193.0 
449.520538 61.0 
449.735443 216.0 
449.856049 279.0 
449.957123 104.0 
449.981812 124.0 
450.066864 216.0 
450.115723 261.0 
450.149597 653.0 
450.274597 72479.0 
450.370117 29.0 
450.457733 185.0 
450.511108 34.0 
450.546417 134.0 
450.605408 208.0 
450.657532 295.0 
450.77951 151.0 
450.897705 121.0 
451.039093 239.0 
451.14386 219.0 
451.215912 800.0 
451.278259 21974.0 
451.633392 207.0 
452.003937 261.0 
452.209259 502.0 
452.283295 2125.0 
452.707245 186.0 
452.911713 27.0 
453.660034 79.0 
454.123383 186.0 
454.500214 337.0 
455.259216 181.0 
455.517914 169.0 
456.050232 93.0 
456.348358 85.0 
456.793701 74.0 
456.995667 188.0 
457.761597 204.0 
460.253052 545.0 
460.822418 338.0 
461.183075 18.0 
461.243378 1319.0 
461.358612 219.0 
461.435699 163.0 
461.993805 22.0 
462.248718 477.0 
462.436493 347.0 
462.69989 145.0 
463.24884 220.0 
463.425995 193.0 
463.633301 216.0 
463.863861 166.0 
464.613007 36.0 
465.055511 112.0 
465.138519 90.0 
465.419373 136.0 
466.149353 117.0 
466.618866 96.0 
467.041382 224.0 
467.140503 301.0 
467.478821 242.0 
467.903717 101.0 
467.996613 291.0 
468.211456 139.0 
468.256134 371.0 
468.716095 118.0 
469.707855 259.0 
470.478424 50.0 
470.907684 148.0 
470.949554 51.0 
471.011322 110.0 
471.162659 137.0 
471.20459 82.0 
471.318115 90.0 
471.375153 34.0 
471.724518 329.0 
471.868103 128.0 
472.051697 411.0 
472.145416 113.0 
472.375244 258.0 
472.895508 47.0 
472.925995 105.0 
472.959564 311.0 
473.01947 170.0 
473.067169 189.0 
473.132233 99.0 
473.628571 74.0 
473.773651 118.0 
474.061218 27.0 
474.097809 139.0 
474.157959 263.0 
474.241547 93.0 
474.289276 264.0 
474.368042 310.0 
474.462646 143.0 
474.611847 187.0 
474.636322 165.0 
474.807495 148.0 
474.845245 96.0 
474.955627 28.0 
475.003876 63.0 
475.042877 169.0 
475.139679 146.0 
475.335022 202.0 
475.421692 144.0 
475.488617 268.0 
475.51709 198.0 
475.569794 85.0 
475.641785 181.0 
475.751312 71.0 
475.810791 125.0 
475.885193 127.0 
475.991516 117.0 
476.086975 199.0 
476.143311 760.0 
476.253784 496.0 
476.284912 397.0 
476.385529 200.0 
476.490814 287.0 
476.562164 246.0 
476.659454 329.0 
476.734741 134.0 
476.775543 247.0 
476.821747 486.0 
476.912567 217.0 
476.967773 150.0 
477.006134 413.0 
477.048065 874.0 
477.102905 507.0 
477.158325 1002.0 
477.262177 3776.0 
477.327209 242.0 
477.42392 470.0 
477.467529 589.0 
477.507324 714.0 
477.550323 510.0 
477.601959 639.0 
477.658295 479.0 
477.692566 836.0 
477.760315 1036.0 
477.797058 784.0 
477.86615 196.0 
477.940063 1128.0 
477.96698 1272.0 
478.036682 2091.0 
478.270203 1912203.0 
478.397186 395.0 
478.455444 292.0 
478.509644 482.0 
478.55899 1931.0 
478.648346 1025.0 
478.753632 348.0 
478.801331 1204.0 
478.891235 2857.0 
478.995758 774.0 
479.062347 851.0 
479.168365 4861.0 
479.273682 522763.0 
479.352753 531.0 
479.430145 180.0 
479.481262 467.0 
479.527954 230.0 
479.570953 290.0 
479.632416 660.0 
479.677826 502.0 
479.749359 623.0 
479.827393 357.0 
479.873352 317.0 
479.922821 439.0 
479.969055 237.0 
480.276367 34692.0 
480.357635 429.0 
480.386627 235.0 
480.502838 47.0 
480.537262 66.0 
480.596375 198.0 
480.642883 381.0 
480.687683 178.0 
480.803253 20.0 
480.833801 99.0 
480.868195 182.0 
480.899628 134.0 
481.010956 45.0 
481.095276 28.0 
481.187103 192.0 
481.243256 117.0 
481.282562 362.0 
481.435944 87.0 
481.564606 204.0 
481.60968 166.0 
481.684357 354.0 
481.739075 388.0 
481.761749 320.0 
481.828705 130.0 
481.882202 249.0 
481.944031 818.0 
482.048431 553.0 
482.087372 361.0 
482.13208 791.0 
482.222382 372.0 
482.253418 750.0 
482.326843 659.0 
482.376556 399.0 
482.424957 253.0 
482.498932 318.0 
482.563751 46.0 
482.671051 248.0 
482.768066 238.0 
482.812561 99.0 
482.850311 146.0 
482.916779 110.0 
482.978363 196.0 
483.078522 260.0 
483.201813 124.0 
483.236603 71.0 
483.291046 224.0 
483.371704 29.0 
483.407196 97.0 
483.46814 142.0 
483.501434 138.0 
483.901978 52.0 
483.935181 59.0 
484.001984 56.0 
484.044952 120.0 
484.10437 27.0 
484.1633 32.0 
484.314331 22.0 
484.411713 37.0 
484.598297 112.0 
484.746368 89.0 
485.096497 71.0 
485.229187 23.0 
485.29364 25.0 
485.727295 37.0 
485.907318 60.0 
487.333374 102.0 
488.131989 21.0 
489.269409 19.0 
489.912018 45.0 
490.093292 162.0 
490.178528 48.0 
492.444 41.0 
492.613617 82.0 
492.75296 116.0 
493.133331 259.0 
493.302185 195.0 
493.581909 105.0 
493.706848 108.0 
493.802612 58.0 
493.875763 214.0 
494.021759 76.0 
494.356537 65.0 
494.529358 55.0 
494.581238 108.0 
495.103851 94.0 
495.163513 142.0 
495.375092 98.0 
495.646057 18.0 
495.80069 103.0 
495.901031 25.0 
496.539398 119.0 
496.882874 28.0 
497.149261 49.0 
497.598572 84.0 
498.851898 57.0 
499.532349 20.0 
499.770386 36.0 
499.874817 34.0 
499.937347 66.0 
500.100952 156.0 
500.364624 72.0 
500.550476 54.0 
500.806366 64.0 
500.904144 20.0 
500.984314 20.0 
501.084839 66.0 
501.293854 83.0 
501.372711 40.0 
502.073639 84.0 
502.346588 42.0 
503.020813 27.0 
503.87027 103.0 
504.178894 163.0 
504.497345 18.0 
505.393982 185.0 
506.23819 50.0 
507.005066 57.0 
514.637573 41.0 
521.820679 142.0 
522.403992 102.0 
533.189575 69.0 
534.64917 53.0 
536.411133 75.0 
550.090759 152.0 
555.93457 155.0 
566.491272 134.0 
567.873352 57.0 
570.64386 69.0 
570.709717 18.0 
582.060974 26.0 
582.903259 276.0 
605.777039 109.0 
607.442505 42.0 
617.370728 42.0 
623.719238 78.0 
637.322144 108.0 
663.96051 55.0 
680.030334 55.0 
688.329773 111.0 
693.281616 40.0 
712.848938 106.0 
717.992004 51.0 
721.973267 89.0 
756.264832 255.0 
784.615906 48.0 
797.610413 64.0 
824.261047 213.0 
969.148987 131.0 
995.328125 134.0 
1006.580017 109.0 
1061.118896 72.0 
1087.082886 115.0 
1111.266724 115.0 
1150.770752 33.0 
1185.20813 46.0 
1190.331055 21.0 
1213.248779 25.0 
1219.991821 119.0 
1248.518311 79.0 
1323.249512 53.0 
1340.424927 318.0 
1396.775146 28.0 
1409.990845 115.0 
1443.115601 194.0 
1507.310913 281.0 
1567.851685 244.0 
1593.022095 94.0 
1749.694336 209.0 
1816.484497 84.0 
1866.352661 20.0 
1930.205078 106.0 
1958.635864 267.0 
1992.662964 277.0 
END IONS

BEGIN IONS
TITLE=Scan Number: 498
PEPMASS=195.065
CHARGE=1+
MSLEVEL=2
FILENAME=C2_GC2_01_2694.mzXML
INSTRUMENT=ion trap
SCANS=498
SMILES=COC1=C(O)C=C(\C=C\C(O)=O)C=C1
INCHIKEY=QURCVMIEKCOAJU-HWKANZROSA-N
78.046463 875.0 
89.03759 2762.0 
89.65197 99.0 
105.034889 495.0 
106.040077 661.0 
107.046654 161.0 
117.032471 824.0 
118.042992 179.0 
119.041389 172.0 
134.037018 1621.0 
145.028946 542.0 
149.058655 1370.0 
162.034698 98.0 
163.042328 619.0 
176.541885 132.0 
177.056732 2655.0 
177.196503 116.0 
178.12323 116.0 
1907.8573 810.0 
END IONS

BEGIN IONS
TITLE=Scan Number: 500
PEPMASS=287.091
CHARGE=1+
MSLEVEL=2
FILENAME=C2_GC2_01_2694.mzXML
INSTRUMENT=ion trap
SCANS=500
SMILES=COC1=C(O)C2=C(OC(CC2=O)C3=CC=CC=C3)C=C1O
INCHIKEY=QUAPPCXFYKSDSV-UHFFFAOYSA-N
69.976341 184.0 
70.00206 734.0 
70.679344 195.0 
71.012276 2885.0 
74.504463 282.0 
74.711411 250.0 
74.90844 248.0 
75.748062 233.0 
77.038177 158.0 
78.047508 184.0 
78.208893 71.0 
78.623566 178.0 
79.030212 170.0 
79.05294 1426.0 
79.548615 360.0 
80.339493 182.0 
81.458588 206.0 
81.691856 128.0 
82.04258 403.0 
83.992065 205.0 
84.020531 12954.0 
84.458969 244.0 
85.025284 1384.0 
85.248405 204.0 
86.292732 190.0 
86.987488 163.0 
89.447823 168.0 
90.614746 136.0 
90.817986 388.0 
90.913292 149.0 
91.054855 1999.0 
92.051331 212.0 
92.525291 107.0 
92.997856 479.0 
93.034889 168.0 
93.904648 145.0 
94.00766 1020.0 
94.834122 125.0 
95.012474 996.0 
95.049133 1046.0 
95.180138 164.0 
95.471855 202.0 
96.450348 154.0 
96.718872 276.0 
97.02816 179.0 
99.007751 3733.0 
100.014618 446.0 
100.225998 166.0 
100.515991 284.0 
102.763046 240.0 
102.999428 127.0 
103.025841 188.0 
103.054337 29348.0 
103.163544 140.0 
103.352043 157.0 
104.058617 3568.0 
104.823219 85.0 
105.044418 3916.0 
105.072723 396.0 
106.038307 250.0 
106.199219 128.0 
107.049042 1233.0 
109.033096 319.0 
109.531258 248.0 
110.034401 340.0 
111.005974 712.0 
111.503387 176.0 
111.76741 101.0 
111.841469 188.0 
112.015739 36737.0 
112.046997 123.0 
112.224449 133.0 
112.514267 143.0 
113.018913 1710.0 
114.030563 90.0 
115.054153 459.0 
116.444046 277.0 
117.071655 194.0 
118.024536 173.0 
118.072601 128.0 
121.027603 307.0 
121.999367 1286.0 
122.032425 168.0 
123.009186 396.0 
124.012924 114.0 
125.058052 157.0 
125.705017 218.0 
125.979233 100.0 
126.113266 151.0 
126.263878 122.0 
126.636673 265.0 
127.003441 5741.0 
127.03727 993.0 
128.004211 784.0 
128.062485 878.0 
129.067078 264.0 
129.216782 211.0 
129.863708 239.0 
130.025711 1210.0 
130.07637 73.0 
130.90921 233.0 
130.993774 238.0 
131.049576 29304.0 
131.264206 155.0 
131.805023 325.0 
132.052078 2027.0 
132.83934 74.0 
133.794617 274.0 
135.25647 286.0 
137.025238 1042.0 
138.033783 329.0 
139.002426 1512.0 
139.037796 189.0 
139.40097 121.0 
139.675552 138.0 
139.883835 414.0 
140.010574 60700.0 
140.061935 114.0 
140.159027 166.0 
140.241226 239.0 
140.988968 133.0 
141.014969 5069.0 
141.070496 480.0 
141.121994 66.0 
141.43335 129.0 
141.592834 157.0 
141.698959 87.0 
141.886551 103.0 
142.078461 551.0 
142.142609 152.0 
142.729797 82.0 
143.084396 134.0 
144.061325 134.0 
144.080658 336.0 
145.014053 394.0 
145.063614 108.0 
146.070236 206.0 
146.113861 191.0 
146.724655 119.0 
146.83165 110.0 
148.01741 168.0 
149.023727 1434.0 
149.991516 129.0 
150.022583 179.0 
151.002182 641.0 
152.011246 230.0 
152.0625 1662.0 
153.020187 714.0 
153.069611 924.0 
154.997971 3604.0 
155.03508 925.0 
155.059525 710.0 
156.001343 153.0 
156.062042 143.0 
157.004288 302.0 
157.027802 153.0 
157.062424 1076.0 
157.751083 248.0 
158.023132 1279.0 
158.059555 153.0 
159.027008 186.0 
159.139618 290.0 
160.836761 118.0 
163.492218 207.0 
164.060471 154.0 
165.61731 290.0 
165.715088 97.0 
165.809219 148.0 
166.027084 2324.0 
166.801285 141.0 
166.998581 522.0 
167.491714 121.0 
167.627167 97.0 
167.799026 195.0 
167.908264 269.0 
167.936295 328.0 
168.00592 193734.0 
168.044586 510.0 
168.06955 150.0 
168.09317 275.0 
168.165268 217.0 
168.241943 74.0 
168.290451 581.0 
168.431061 67.0 
168.516541 83.0 
168.616104 111.0 
168.706024 104.0 
168.905975 79.0 
168.925476 194.0 
169.009232 11332.0 
169.069702 190.0 
169.176239 95.0 
169.231674 96.0 
169.25174 189.0 
169.95665 77.0 
169.997314 269.0 
170.023346 404.0 
170.05574 81.0 
170.0755 165.0 
170.296188 132.0 
170.387314 90.0 
170.412445 256.0 
170.446671 93.0 
171.561295 223.0 
173.059753 3279.0 
174.039963 150.0 
176.600327 216.0 
177.015076 146.0 
177.555603 81.0 
177.579666 101.0 
178.461411 153.0 
179.046432 132.0 
179.599289 123.0 
180.446655 436.0 
180.696472 99.0 
181.012573 1287.0 
181.055603 1832.0 
181.849808 82.0 
182.10788 150.0 
182.199203 219.0 
182.273056 129.0 
182.54129 65.0 
182.656891 114.0 
182.694305 76.0 
182.789154 147.0 
182.906754 140.0 
182.954926 581.0 
183.029694 295427.0 
183.091431 230.0 
183.184875 280.0 
183.216202 110.0 
183.258698 105.0 
183.332062 128.0 
183.373779 72.0 
183.488419 129.0 
183.650726 244.0 
183.919205 76.0 
184.032974 13603.0 
184.08551 194.0 
184.338654 110.0 
184.511337 74.0 
184.916473 75.0 
185.013596 453.0 
185.062256 758.0 
185.091339 96.0 
185.130783 109.0 
185.230316 108.0 
185.268127 183.0 
185.334106 232.0 
185.379532 176.0 
185.472549 135.0 
185.502914 117.0 
185.55191 104.0 
185.609726 110.0 
185.73735 93.0 
186.016846 67989.0 
186.060699 186.0 
186.605286 354.0 
186.996872 152.0 
187.02005 3391.0 
187.98877 128.0 
188.018051 607.0 
188.126526 149.0 
188.422333 88.0 
191.054657 153.0 
191.731354 148.0 
192.062698 187.0 
192.726685 111.0 
194.022812 1559.0 
195.0289 2129.0 
196.037521 755.0 
196.538696 84.0 
196.565247 154.0 
197.057526 161.0 
198.022141 232.0 
198.072357 160.0 
199.081543 252.0 
201.039597 973.0 
201.087067 134.0 
201.478714 137.0 
205.386322 261.0 
205.536942 131.0 
207.038986 164.0 
209.04483 903.0 
209.070923 636.0 
213.090271 527.0 
217.089035 347.0 
219.10083 249.0 
225.027145 106.0 
225.409912 168.0 
226.064438 475.0 
227.071686 356.0 
228.078888 128.0 
228.255157 272.0 
229.049301 850.0 
230.059372 348.0 
231.095993 188.0 
231.468338 72.0 
235.098419 80.0 
237.056961 533.0 
239.973297 147.0 
240.487762 118.0 
241.083725 307.0 
243.066879 420.0 
245.038223 127.0 
245.082962 3647.0 
246.089783 113.0 
251.068253 149.0 
254.062424 1071.0 
255.064636 140.0 
259.099579 329.0 
260.091797 138.0 
266.58548 240.0 
269.084137 730.0 
271.019958 378.0 
271.06192 2478.0 
271.653076 181.0 
272.067352 3602.0 
272.733154 147.0 
273.070709 336.0 
284.65036 107.0 
285.03418 202.0 
285.670044 255.0 
286.260376 219.0 
286.571899 126.0 
286.613098 93.0 
286.654816 164.0 
286.822449 382.0 
286.909393 165.0 
287.092865 135326.0 
287.179993 174.0 
287.246948 117.0 
287.286682 71.0 
287.33728 77.0 
287.381042 107.0 
287.465912 158.0 
287.542023 64.0 
287.614594 113.0 
287.791534 138.0 
288.097046 9973.0 
288.571655 124.0 
288.686157 134.0 
289.790497 163.0 
290.156677 101.0 
290.874207 104.0 
302.951965 91.0 
372.453064 80.0 
500.761292 115.0 
674.150696 78.0 
692.33313 85.0 
794.271851 100.0 
1313.973267 169.0 
1328.282715 376.0 
1342.353149 242.0 
1362.143066 127.0 
1364.852783 277.0 
1453.290161 199.0 
1484.536255 259.0 
1498.856079 266.0 
1612.893311 70.0 
1667.483643 230.0 
1689.880371 235.0 
1690.872681 209.0 
1796.376831 110.0 
1797.176636 261.0 
1859.746216 139.0 
1885.248047 214.0 
1886.675171 198.0 
1897.77417 151.0 
1933.005005 304.0 
1948.119751 116.0 
1958.131592 180.0 
1958.826538 198.0 
1971.898193 253.0 
1998.645142 197.0 
END IONS

BEGIN IONS
TITLE=Scan Number: 501
PEPMASS=311.164
CHARGE=1+
MSLEVEL=2
FILENAME=C2_GC2_01_2694.mzXML
INSTRUMENT=ion trap
SCANS=501
SMILES=CC(C)=CC1C[C@](C)(C=C)C2=C(O1)C3=C(C)C=CC=C3OC2=O
INCHIKEY=NJVADEFPOCMONF-LGTGAQBVSA-N
71.034798 42.0 
72.588402 186.0 
72.637535 143.0 
73.064224 27.0 
73.391174 119.0 
75.023819 180.0 
75.214188 294.0 
75.835815 251.0 
75.944801 114.0 
76.83596 90.0 
76.930626 246.0 
77.038826 1070.0 
77.076134 47.0 
77.274536 214.0 
77.285942 162.0 
78.043968 205.0 
79.017021 214.0 
79.053131 4251.0 
79.110733 43.0 
79.994797 55.0 
80.409378 32.0 
80.470131 147.0 
81.025703 158.0 
81.069244 2415.0 
81.657448 313.0 
81.981941 188.0 
83.048912 206.0 
83.082321 526.0 
83.898804 185.0 
84.088722 207.0 
84.388954 317.0 
85.423988 206.0 
86.441841 53.0 
87.166542 284.0 
89.67794 51.0 
89.800171 279.0 
90.574333 153.0 
90.73455 132.0 
91.05481 8223.0 
91.372345 92.0 
91.403282 47.0 
91.622643 24.0 
91.698174 298.0 
92.060478 614.0 
92.596039 137.0 
92.837646 233.0 
93.069687 7790.0 
94.073105 179.0 
94.131485 113.0 
94.992943 225.0 
95.013557 782.0 
95.048569 2274.0 
95.084007 735.0 
96.089302 159.0 
96.687973 234.0 
99.93119 136.0 
100.275871 39.0 
100.781258 178.0 
102.045074 346.0 
102.581978 306.0 
103.030022 352.0 
103.053276 6231.0 
103.183861 57.0 
103.219894 78.0 
103.740097 329.0 
103.908905 31.0 
104.058136 1064.0 
104.55162 235.0 
104.654907 197.0 
104.918655 256.0 
104.987579 170.0 
105.044022 4644.0 
105.069435 9305.0 
106.05101 484.0 
106.075218 747.0 
106.428375 131.0 
106.770134 186.0 
106.808655 40.0 
107.048149 3962.0 
107.085663 2841.0 
108.051682 391.0 
108.465263 80.0 
109.063576 1612.0 
109.101311 669.0 
110.068573 567.0 
111.548347 18.0 
111.578468 299.0 
112.169456 39.0 
112.869827 278.0 
114.017387 136.0 
114.113655 257.0 
114.865166 240.0 
115.053925 17315.0 
115.088676 318.0 
115.661102 242.0 
116.059883 4261.0 
116.141541 87.0 
116.948143 181.0 
116.991547 248.0 
117.039337 303.0 
117.069893 6462.0 
118.060005 617.0 
118.856392 116.0 
119.054001 1961.0 
120.056549 410.0 
120.089165 258.0 
120.298798 111.0 
121.06366 15717.0 
121.100487 2035.0 
121.152863 24.0 
121.634407 57.0 
122.066231 1134.0 
122.100647 108.0 
122.124512 148.0 
122.772087 146.0 
122.869637 24.0 
122.970329 20.0 
123.032394 204.0 
123.117996 571.0 
125.03508 115.0 
125.056953 405.0 
126.043831 185.0 
126.182396 175.0 
126.942978 264.0 
126.971832 265.0 
127.029114 190.0 
127.051987 865.0 
127.081947 237.0 
127.797295 163.0 
127.952873 403.0 
128.06102 18717.0 
128.905991 345.0 
129.069565 35362.0 
129.117844 36.0 
129.171341 42.0 
130.014267 205.0 
130.074783 7401.0 
130.138885 58.0 
130.892273 179.0 
131.048004 2762.0 
131.084381 4405.0 
131.216888 44.0 
131.690292 141.0 
131.785904 40.0 
132.058197 2364.0 
132.088669 281.0 
133.065125 1499.0 
133.102676 117.0 
134.064713 262.0 
134.101822 205.0 
134.535675 202.0 
134.623108 319.0 
135.043472 56598.0 
135.078964 1866.0 
135.112534 1228.0 
135.176529 109.0 
135.483124 41.0 
135.60231 147.0 
135.7686 214.0 
136.046707 3963.0 
136.120682 126.0 
136.341965 311.0 
137.049179 185.0 
138.560364 119.0 
139.032394 222.0 
139.050827 327.0 
139.149231 169.0 
139.338882 28.0 
139.833145 53.0 
140.05835 570.0 
140.26622 72.0 
140.439743 139.0 
140.649002 189.0 
140.79245 99.0 
140.948166 142.0 
140.974976 155.0 
141.01181 198.0 
141.069168 61851.0 
141.109726 150.0 
141.130081 45.0 
141.564636 215.0 
141.586456 22.0 
141.624359 70.0 
141.714447 111.0 
141.7379 185.0 
141.795547 139.0 
141.819016 164.0 
141.852173 54.0 
141.957458 96.0 
141.980286 171.0 
141.996994 525.0 
142.077072 223837.0 
142.21843 37.0 
142.268219 56.0 
142.299103 33.0 
142.324265 18.0 
142.347992 129.0 
142.401093 97.0 
142.767059 251.0 
142.878845 261.0 
142.904144 101.0 
142.932587 72.0 
143.018951 210.0 
143.044983 761.0 
143.081039 26993.0 
143.277374 101.0 
143.341553 230.0 
143.688736 76.0 
143.761108 177.0 
144.056061 7447.0 
144.09201 979.0 
144.115158 254.0 
144.152039 23.0 
144.27829 86.0 
144.297104 137.0 
144.319168 95.0 
144.330429 81.0 
144.469589 67.0 
144.568726 58.0 
144.866409 222.0 
144.949051 31.0 
145.02623 211.0 
145.06398 23758.0 
145.100128 9906.0 
145.238373 81.0 
145.566193 242.0 
146.067108 2132.0 
146.105118 999.0 
147.043442 1705.0 
147.076477 121.0 
147.123169 218.0 
147.47847 20.0 
147.560349 257.0 
147.653458 112.0 
148.023376 74.0 
148.05394 269.0 
148.124573 265.0 
148.525665 250.0 
148.779999 282.0 
148.794586 286.0 
149.030487 379.0 
149.063004 156.0 
149.132019 932.0 
149.320053 126.0 
149.703537 268.0 
150.132324 31.0 
151.781586 67.0 
152.000336 274.0 
152.06134 15665.0 
152.370682 68.0 
152.56842 39.0 
152.589874 57.0 
152.812256 110.0 
153.001633 230.0 
153.025925 58.0 
153.068665 7560.0 
154.074432 2634.0 
154.285126 32.0 
154.631638 21.0 
155.059738 10951.0 
155.085373 11532.0 
155.163284 70.0 
155.222717 32.0 
155.28241 123.0 
155.304749 81.0 
156.062683 1772.0 
156.091507 3336.0 
156.420303 33.0 
156.640793 303.0 
156.711563 301.0 
156.848755 171.0 
156.972305 307.0 
157.021042 231.0 
157.063675 10629.0 
157.101089 56715.0 
157.174881 52.0 
157.246857 35.0 
157.301407 66.0 
157.408005 140.0 
158.072723 21789.0 
158.103882 4002.0 
158.216507 89.0 
158.273224 71.0 
158.332169 43.0 
158.426727 26.0 
159.043015 1665.0 
159.079544 9460.0 
159.114822 768.0 
159.292969 70.0 
160.053314 729.0 
160.081558 937.0 
160.281937 93.0 
161.024094 235.0 
161.058029 4808.0 
162.061035 856.0 
162.378342 43.0 
163.037903 3187.0 
163.788589 20.0 
164.032501 176.0 
164.090775 244.0 
164.406357 68.0 
164.488556 91.0 
165.069687 6844.0 
165.609894 239.0 
166.075348 3502.0 
166.525299 90.0 
167.050934 173.0 
167.08461 5662.0 
167.11821 257.0 
167.194885 30.0 
167.835144 60.0 
167.986038 63.0 
168.025253 173.0 
168.056366 5459.0 
168.093613 1403.0 
169.014313 44.0 
169.071838 10316.0 
169.305145 104.0 
169.843674 117.0 
169.881775 147.0 
170.026398 179.0 
170.073425 10825.0 
170.623566 61.0 
170.727844 135.0 
171.044022 2416.0 
171.075668 885.0 
171.46286 209.0 
172.050903 1082.0 
172.085938 1276.0 
172.296738 150.0 
172.419357 46.0 
172.488037 113.0 
172.700592 49.0 
172.94397 179.0 
173.030365 105.0 
173.059097 13643.0 
173.095886 23599.0 
173.267273 61.0 
173.334045 141.0 
173.525711 102.0 
173.892883 62.0 
174.063049 1181.0 
174.100189 2954.0 
175.105484 223.0 
175.152634 240.0 
175.391754 74.0 
175.551712 59.0 
176.021271 196.0 
176.441513 75.0 
176.950409 60.0 
177.055511 1573.0 
177.126617 8599.0 
177.177795 59.0 
177.306961 38.0 
177.61174 58.0 
177.692169 77.0 
177.977997 82.0 
178.074951 827.0 
178.129883 897.0 
179.061478 744.0 
179.280365 178.0 
180.05983 138.0 
181.061829 533.0 
181.102097 704.0 
182.070496 1713.0 
182.574234 226.0 
182.721115 94.0 
183.044098 1048.0 
183.080078 7782.0 
183.88623 96.0 
184.08551 2317.0 
185.057632 2828.0 
185.095627 9931.0 
185.404495 34.0 
185.618988 169.0 
185.734985 68.0 
186.067719 2809.0 
186.099915 1314.0 
186.433243 158.0 
187.041473 1341.0 
187.074768 5020.0 
187.109909 631.0 
187.403564 38.0 
187.622025 109.0 
188.077667 675.0 
188.116364 187.0 
188.98996 192.0 
189.054306 34668.0 
189.113632 41.0 
189.260254 125.0 
189.421707 99.0 
189.589249 52.0 
189.740173 139.0 
189.829941 91.0 
190.057617 4968.0 
190.199219 60.0 
190.427307 68.0 
190.577469 91.0 
190.59996 18.0 
190.919556 124.0 
191.078812 267.0 
191.476669 97.0 
191.576752 152.0 
191.893219 77.0 
192.092133 127.0 
192.163483 74.0 
192.284775 76.0 
192.361176 39.0 
193.061249 81.0 
193.102829 402.0 
193.794388 95.0 
194.07135 391.0 
194.105591 339.0 
195.085678 1006.0 
196.069611 224.0 
196.228607 65.0 
197.058121 235.0 
197.091019 233.0 
197.115021 346.0 
197.789688 146.0 
198.067459 684.0 
199.037048 608.0 
199.070297 141.0 
199.10878 439.0 
199.369156 250.0 
200.056717 361.0 
200.074799 488.0 
200.366928 159.0 
200.674713 318.0 
200.89064 137.0 
200.970779 85.0 
201.055511 7313.0 
201.09079 35875.0 
201.360489 71.0 
201.54274 95.0 
202.059662 1097.0 
202.089539 2065.0 
202.571457 89.0 
202.896439 174.0 
203.069794 28196.0 
203.154327 72.0 
203.244202 174.0 
203.315796 107.0 
203.354279 108.0 
203.39299 30.0 
203.620743 80.0 
203.669693 66.0 
204.073318 2697.0 
204.861557 242.0 
205.043579 325.0 
205.101486 113.0 
205.480057 121.0 
205.545242 90.0 
205.699234 56.0 
206.089569 30.0 
206.679596 177.0 
206.800812 265.0 
207.052994 114.0 
207.11734 176.0 
208.087326 342.0 
209.097534 932.0 
210.065674 464.0 
210.300232 18.0 
211.017487 116.0 
211.074768 12705.0 
212.079086 2325.0 
212.263489 317.0 
213.053406 3061.0 
213.089172 699.0 
214.005737 374.0 
214.061264 6137.0 
214.87262 63.0 
215.068726 4584.0 
215.101776 325.0 
216.085114 77.0 
217.084991 1391.0 
217.134079 66.0 
218.081711 140.0 
218.920181 53.0 
219.062408 216.0 
219.166199 247.0 
221.058411 109.0 
222.070892 193.0 
224.163589 40.0 
224.632309 233.0 
225.058945 248.0 
225.092453 664.0 
226.131287 199.0 
226.97084 218.0 
227.069244 3667.0 
227.105148 1283.0 
227.841736 60.0 
227.931168 36.0 
228.052826 396.0 
228.073288 813.0 
228.10994 396.0 
228.628922 260.0 
229.085526 211174.0 
229.217285 84.0 
229.390991 175.0 
229.562378 69.0 
229.7285 77.0 
230.089264 18790.0 
230.223038 35.0 
230.299545 81.0 
231.063629 536.0 
231.098511 771.0 
231.486206 84.0 
231.514069 189.0 
231.586792 134.0 
231.756653 74.0 
231.920029 200.0 
232.112976 18.0 
232.142929 70.0 
232.737625 92.0 
233.130417 143.0 
235.106949 54.0 
235.288147 19.0 
236.116348 92.0 
237.091064 1619.0 
238.09314 527.0 
239.069809 177.0 
239.107132 97.0 
239.244141 47.0 
240.0802 298.0 
240.977066 196.0 
241.083664 2608.0 
241.399734 52.0 
242.222565 112.0 
243.101227 21740.0 
243.202026 53.0 
243.349533 59.0 
243.461929 127.0 
243.696991 57.0 
244.103745 2536.0 
244.351425 44.0 
245.082565 694.0 
245.918396 19.0 
252.121185 238.0 
253.020615 297.0 
253.094467 448.0 
253.120255 800.0 
254.127914 248.0 
254.887833 82.0 
255.101273 27775.0 
255.36174 69.0 
256.106934 2986.0 
257.117279 279.0 
257.546753 130.0 
268.107819 131.0 
268.28894 93.0 
269.114197 3679.0 
270.119324 228.0 
275.159729 137.0 
283.114838 148.0 
286.039307 69.0 
289.103943 38.0 
292.111023 34.0 
293.021973 51.0 
293.149719 348.0 
293.717102 22.0 
293.989227 26.0 
310.703064 312.0 
311.074402 102.0 
311.124176 169.0 
311.164948 8869.0 
312.165253 1724.0 
312.445709 145.0 
314.300629 38.0 
314.535034 156.0 
351.361511 88.0 
380.275757 137.0 
384.396484 108.0 
505.137329 50.0 
670.403992 76.0 
1049.48291 92.0 
1105.74231 293.0 
1115.088257 223.0 
1257.039429 296.0 
1309.737305 218.0 
1346.696045 256.0 
1346.976196 49.0 
1347.471069 164.0 
1383.856689 28.0 
1448.708496 268.0 
1455.929688 41.0 
1557.272461 156.0 
1574.425415 93.0 
1598.386475 230.0 
1637.342529 432.0 
1662.834717 198.0 
1667.616821 208.0 
1667.802246 60.0 
1729.259521 400.0 
1763.140381 263.0 
1780.318115 215.0 
1789.640137 244.0 
1835.844849 173.0 
1901.452515 174.0 
1905.949219 156.0 
1918.86145 127.0 
1938.562622 167.0 
1939.756714 307.0 
1948.89856 228.0 
1961.591431 165.0 
1963.155518 212.0 
1971.443604 124.0 
1972.214233 200.0 
1983.167969 262.0 
END IONS

BEGIN IONS
TITLE=Scan Number: 502
PEPMASS=479.11801
CHARGE=1+
MSLEVEL=2
FILENAME=C2_GC2_01_2694.mzXML
INSTRUMENT=ion trap
SCANS=502
SMILES=COC1=CC(O)=C2C(=O)C(O[C@@H]3O[C@@H](C)[C@H](O)[C@@H](O)[C@H]3O)=C(OC2=C1O)C4=CC(O)=C(O)C=C4
INCHIKEY=PTUBUBVQXWVBPI-QJCKQCIOSA-N
71.00869 342.0 
71.04863 8570.0 
71.643677 234.0 
72.049515 1173.0 
73.027092 1121.0 
75.027138 381.0 
75.042458 889.0 
76.724182 231.0 
82.722183 242.0 
83.049042 571.0 
84.166466 392.0 
84.623703 205.0 
84.955727 111.0 
85.02739 14251.0 
85.347282 213.0 
86.029877 453.0 
87.042618 269.0 
87.738434 166.0 
89.971527 123.0 
92.027725 337.0 
92.058136 197.0 
93.017014 428.0 
93.033188 401.0 
95.0233 99.0 
95.048553 178.0 
98.262337 248.0 
100.047775 165.0 
107.045227 170.0 
108.276527 260.0 
108.440948 243.0 
108.994438 196.0 
109.025719 315.0 
110.035797 136.0 
111.042992 419.0 
112.013908 423.0 
115.047646 105.0 
121.02771 1344.0 
122.035561 436.0 
123.042839 315.0 
124.015045 292.0 
128.981491 219.0 
129.035416 218.0 
129.055603 4661.0 
132.436737 112.0 
134.037613 581.0 
135.111465 156.0 
137.024353 1979.0 
140.011765 552.0 
140.04184 368.0 
141.017609 195.0 
142.022797 277.0 
144.058792 262.0 
145.02684 131.0 
147.040924 228.0 
147.067032 631.0 
149.027237 643.0 
150.020218 249.0 
151.032089 242.0 
152.009598 233.0 
153.020737 166.0 
154.031235 185.0 
155.034622 174.0 
155.248566 279.0 
156.042053 614.0 
158.957993 246.0 
159.045761 147.0 
159.32225 130.0 
160.04921 229.0 
161.022018 135.0 
161.065506 86.0 
162.033859 184.0 
164.59137 135.0 
165.014557 361.0 
165.244324 125.0 
166.69313 141.0 
167.032578 279.0 
167.976685 209.0 
168.006317 3774.0 
168.043579 160.0 
169.011917 6333.0 
169.319321 175.0 
169.814911 95.0 
170.019882 1396.0 
171.054489 395.0 
172.050568 238.0 
175.044754 161.0 
177.027512 277.0 
179.503906 223.0 
180.02034 87.0 
181.014679 207.0 
182.996536 177.0 
183.02861 2319.0 
183.228424 103.0 
184.02005 228.0 
185.015503 273.0 
185.049789 211.0 
186.014709 1369.0 
187.022415 110.0 
187.113861 238.0 
187.845444 262.0 
188.237335 163.0 
189.056717 289.0 
190.058487 162.0 
191.028442 128.0 
194.026398 416.0 
195.02507 265.0 
196.032227 319.0 
197.05835 207.0 
197.652496 78.0 
198.028458 179.0 
199.038406 1031.0 
200.04631 150.0 
202.029526 468.0 
203.041733 491.0 
203.286331 187.0 
204.037735 200.0 
206.057007 216.0 
208.029617 400.0 
209.016052 188.0 
213.059448 223.0 
215.331085 103.0 
216.041779 1116.0 
219.028839 176.0 
220.028824 271.0 
221.040085 106.0 
223.125153 189.0 
225.036606 98.0 
227.004288 116.0 
227.033432 177.0 
227.378098 136.0 
228.040009 418.0 
229.046295 91.0 
230.016418 85.0 
231.066055 130.0 
233.046936 227.0 
234.052795 118.0 
235.023666 456.0 
236.029297 240.0 
243.729553 294.0 
244.036072 3348.0 
245.003067 126.0 
245.045166 1160.0 
246.046051 161.0 
246.749481 124.0 
248.033279 180.0 
248.312119 366.0 
249.035034 123.0 
250.011749 218.0 
253.035812 233.0 
254.00145 178.0 
254.025726 192.0 
254.449112 206.0 
255.016159 352.0 
256.081299 191.0 
259.061035 1058.0 
260.033569 225.0 
260.393555 146.0 
260.60318 135.0 
261.035187 578.0 
262.044434 718.0 
262.179565 258.0 
263.018555 207.0 
265.017181 158.0 
266.994385 363.0 
267.053925 506.0 
267.605072 278.0 
271.019165 293.0 
272.032623 2151.0 
272.415466 155.0 
272.476013 158.0 
273.035675 2039.0 
274.046539 340.0 
274.438354 102.0 
276.063995 109.0 
277.072876 1238.0 
278.072632 145.0 
283.029388 330.0 
284.852264 162.0 
287.052795 1397.0 
289.037292 1747.0 
290.043091 2351.0 
290.522827 210.0 
291.046387 465.0 
291.324219 255.0 
291.574768 217.0 
292.043701 483.0 
297.044373 125.0 
299.126404 86.0 
299.324921 80.0 
300.026123 1496.0 
300.15332 282.0 
300.324921 116.0 
300.872742 90.0 
301.034546 13041.0 
301.191223 275.0 
301.255646 75.0 
301.901947 196.0 
301.975342 82.0 
302.042908 3230.0 
302.588593 132.0 
303.042145 318.0 
304.209198 88.0 
305.066803 195.0 
308.741974 183.0 
309.787292 263.0 
313.987183 107.0 
314.760071 85.0 
315.00592 262.0 
315.051971 1324.0 
316.05191 347.0 
316.341125 141.0 
316.584839 72.0 
316.74231 186.0 
317.035858 3777.0 
317.067108 2955.0 
317.134583 64.0 
317.473724 106.0 
317.507874 332.0 
317.600983 202.0 
317.679596 127.0 
317.81665 157.0 
317.861084 176.0 
317.899109 172.0 
317.942078 762.0 
318.037659 66985.0 
318.184357 64.0 
318.466827 135.0 
318.544281 64.0 
318.649292 96.0 
319.04184 9349.0 
319.314087 93.0 
319.730164 328.0 
319.970551 85.0 
320.042419 267.0 
320.449768 165.0 
321.213043 115.0 
321.342346 155.0 
328.00177 182.0 
329.861176 81.0 
329.995728 167.0 
330.914154 107.0 
331.235413 73.0 
331.41803 160.0 
331.612488 138.0 
331.705261 399.0 
332.023926 206.0 
332.071472 189.0 
332.428986 172.0 
332.474457 85.0 
332.530243 190.0 
332.657745 422.0 
332.808899 321.0 
332.844727 177.0 
332.957245 879.0 
333.061768 318522.0 
333.166626 422.0 
333.238922 146.0 
333.281219 168.0 
333.333893 170.0 
333.425385 389.0 
333.479767 225.0 
333.567352 105.0 
333.681671 127.0 
333.733521 362.0 
333.841156 290.0 
333.974915 304.0 
334.000214 616.0 
334.065216 43489.0 
334.142548 241.0 
334.186066 236.0 
334.23468 107.0 
334.294312 117.0 
334.456757 80.0 
335.011353 216.0 
335.069092 2086.0 
335.873627 81.0 
336.091461 200.0 
336.243988 112.0 
336.361786 104.0 
336.409332 213.0 
336.559601 92.0 
336.683136 110.0 
337.257782 72.0 
337.375458 112.0 
337.522125 139.0 
339.060822 65.0 
341.36618 151.0 
346.560852 78.0 
351.445618 92.0 
355.873444 74.0 
367.264832 145.0 
425.04483 126.0 
729.003967 181.0 
1261.88501 67.0 
END IONS

BEGIN IONS
TITLE=Scan Number: 503
PEPMASS=539.09698
CHARGE=1+
MSLEVEL=2
FILENAME=C2_GC2_01_2694.mzXML
INSTRUMENT=ion trap
SCANS=503
SMILES=OC1=CC=C(C=C1)C2=CC(=O)C3=C(O)C=C(O)C(=C3O2)C4=C5OC(=CC(=O)C5=C(O)C=C4O)C6=CC=C(O)C=C6
INCHIKEY=LADPNODMUXOPRG-UHFFFAOYSA-N
91.058189 283.0 
92.058998 154.0 
103.13179 237.0 
111.008202 176.0 
111.042107 252.0 
119.047134 742.0 
119.720604 169.0 
120.057396 179.0 
121.02845 5662.0 
131.051041 172.0 
131.765915 156.0 
145.027863 2254.0 
146.027725 138.0 
147.034531 125.0 
153.018524 3253.0 
154.017319 309.0 
157.062744 163.0 
157.306732 324.0 
159.041428 214.0 
162.382553 127.0 
163.00032 168.0 
163.038666 481.0 
165.022766 253.0 
167.568283 204.0 
169.062653 121.0 
170.234695 126.0 
171.049118 264.0 
173.023849 152.0 
173.05957 241.0 
177.054474 270.0 
181.062485 201.0 
185.054062 289.0 
187.077759 159.0 
188.079529 118.0 
192.042984 284.0 
193.063797 114.0 
195.044403 650.0 
195.436111 128.0 
197.91893 158.0 
198.938797 90.0 
199.040039 1199.0 
201.045593 128.0 
203.223816 134.0 
203.547348 244.0 
205.071213 97.0 
207.077805 221.0 
209.04451 225.0 
209.348969 190.0 
212.700409 142.0 
213.053391 437.0 
214.055344 164.0 
214.75354 137.0 
215.073715 98.0 
216.06575 201.0 
216.684052 180.0 
217.045822 138.0 
221.06282 283.0 
222.067535 122.0 
223.035736 142.0 
223.076584 348.0 
225.021835 131.0 
227.069901 89.0 
229.011047 230.0 
231.031479 227.0 
233.061096 153.0 
237.053314 1046.0 
238.065048 135.0 
239.040512 598.0 
239.079453 261.0 
241.051102 2227.0 
241.5634 242.0 
242.054947 919.0 
242.698242 188.0 
244.07988 199.0 
245.057877 205.0 
247.080582 198.0 
247.407654 118.0 
249.05307 186.0 
251.072037 97.0 
252.203598 110.0 
253.037415 154.0 
255.029633 139.0 
255.064621 338.0 
256.0672 308.0 
257.044159 245.0 
258.027618 129.0 
259.058746 662.0 
261.912262 353.0 
262.0625 134.0 
262.830658 264.0 
263.067596 600.0 
263.988953 76.0 
264.045654 424.0 
265.047577 719.0 
265.078979 162.0 
265.616028 83.0 
265.849304 191.0 
266.05426 478.0 
267.067352 106.0 
268.081909 114.0 
269.046265 2722.0 
270.042236 513.0 
271.021851 186.0 
271.075684 198.0 
272.063843 193.0 
275.071777 207.0 
275.716766 190.0 
277.050232 584.0 
278.064667 370.0 
279.066498 2253.0 
280.46579 162.0 
281.046173 4039.0 
281.34024 175.0 
282.057526 611.0 
283.021606 291.0 
283.060272 6754.0 
284.060791 1451.0 
285.09201 455.0 
286.069855 116.0 
287.071106 204.0 
288.070496 198.0 
289.041443 360.0 
289.081207 162.0 
290.057159 572.0 
291.038818 527.0 
292.040741 192.0 
292.073273 436.0 
293.049408 183.0 
293.806824 188.0 
295.062927 873.0 
295.237549 191.0 
296.066803 226.0 
296.2612 167.0 
297.060028 331.0 
297.09964 252.0 
297.617615 306.0 
298.058838 271.0 
299.462311 139.0 
300.049469 99.0 
301.050751 142.0 
302.055634 210.0 
303.071259 1041.0 
304.081635 124.0 
305.04306 3990.0 
305.810394 153.0 
306.053436 1573.0 
306.983185 167.0 
307.059937 13921.0 
307.12674 120.0 
307.462189 166.0 
308.016571 239.0 
308.068909 2905.0 
309.036285 344.0 
309.080292 601.0 
309.948151 223.0 
310.946442 142.0 
311.057831 1930.0 
312.055267 168.0 
313.032806 1145.0 
314.043976 324.0 
314.611481 183.0 
315.077087 311.0 
318.08548 170.0 
318.812286 181.0 
319.060608 6934.0 
319.54715 432.0 
320.06543 1268.0 
321.041504 188.0 
321.076294 1942.0 
321.130676 160.0 
322.085938 537.0 
322.682434 104.0 
323.054932 1281.0 
324.051086 175.0 
325.016022 160.0 
325.813568 96.0 
326.082336 138.0 
326.193329 186.0 
326.898315 155.0 
329.052368 272.0 
329.455963 185.0 
330.053436 509.0 
331.051422 1273.0 
331.098663 463.0 
331.153351 104.0 
332.064697 684.0 
332.443878 119.0 
333.041809 738.0 
334.044769 224.0 
334.07901 120.0 
334.738983 157.0 
335.05719 10776.0 
335.293182 69.0 
336.061005 2961.0 
336.243683 141.0 
337.034882 3465.0 
338.041168 585.0 
338.083099 153.0 
339.046661 134.0 
341.084991 422.0 
345.082886 1047.0 
345.423401 80.0 
346.076294 388.0 
346.928467 111.0 
346.984406 145.0 
347.054138 13795.0 
347.13736 170.0 
347.737152 179.0 
348.061157 3444.0 
349.075836 266.0 
349.315796 206.0 
350.072998 597.0 
351.03894 348.0 
351.179108 186.0 
353.08078 87.0 
357.044525 162.0 
357.07959 255.0 
358.05304 201.0 
358.088593 195.0 
359.054382 5143.0 
360.061554 1617.0 
360.096039 845.0 
360.298004 142.0 
361.034241 1055.0 
361.757324 138.0 
361.887634 170.0 
362.051758 157.0 
362.704468 124.0 
362.820007 78.0 
363.088226 113.0 
363.59375 269.0 
364.724426 102.0 
365.069244 1527.0 
366.5961 168.0 
366.810516 212.0 
368.934906 241.0 
371.063934 132.0 
372.063843 90.0 
372.099426 162.0 
372.639465 234.0 
373.077423 1436.0 
373.984985 77.0 
374.924225 92.0 
375.051636 2829.0 
375.771362 181.0 
375.861298 137.0 
375.922974 281.0 
376.054993 2090.0 
376.50415 126.0 
376.70575 126.0 
376.907532 180.0 
376.956757 271.0 
376.995789 838.0 
377.06723 48279.0 
377.364899 280.0 
377.575226 112.0 
377.82962 118.0 
377.946136 355.0 
378.070892 10485.0 
378.180084 264.0 
378.289764 129.0 
378.683105 71.0 
378.992584 349.0 
379.068024 1961.0 
380.110443 155.0 
380.322479 160.0 
380.411957 98.0 
380.60379 123.0 
380.653564 187.0 
380.718018 108.0 
381.699036 144.0 
381.77951 127.0 
382.835999 141.0 
383.098419 120.0 
383.468445 250.0 
383.700378 166.0 
385.03476 361.0 
385.081635 436.0 
385.344299 200.0 
386.081818 542.0 
386.800507 127.0 
386.997101 124.0 
387.087219 21735.0 
387.705444 94.0 
388.043823 192.0 
388.091492 4376.0 
388.706421 88.0 
389.071472 644.0 
390.085052 339.0 
390.66156 76.0 
391.043518 263.0 
391.406525 125.0 
391.63916 131.0 
391.685211 92.0 
395.050568 121.0 
395.100647 467.0 
395.740906 113.0 
396.113678 110.0 
397.10257 79.0 
399.077057 210.0 
400.017639 158.0 
400.087036 109.0 
400.534973 289.0 
400.958893 197.0 
401.067749 6291.0 
402.024719 229.0 
402.073853 839.0 
402.152863 262.0 
402.202118 334.0 
402.50882 128.0 
402.689636 280.0 
402.899689 472.0 
402.95108 440.0 
403.045837 38513.0 
403.630005 176.0 
403.912018 99.0 
404.050781 7240.0 
405.047455 751.0 
405.268646 149.0 
406.037781 191.0 
407.09494 92.0 
407.274414 119.0 
410.070282 228.0 
410.347412 265.0 
411.011353 134.0 
411.083405 551.0 
412.09668 388.0 
413.065857 1237.0 
414.065948 68.0 
417.067596 246.0 
417.310791 119.0 
418.067902 611.0 
419.020935 849.0 
419.078369 15788.0 
420.036896 124.0 
420.084839 1347.0 
421.054047 8025.0 
421.568024 189.0 
422.059418 2055.0 
423.035553 305.0 
423.149994 235.0 
423.304535 88.0 
424.074097 134.0 
424.524597 146.0 
425.12085 203.0 
426.810059 144.0 
428.98468 78.0 
431.079437 376.0 
431.688202 212.0 
431.861084 324.0 
432.07132 204.0 
438.630127 282.0 
441.05484 165.0 
441.099304 734.0 
442.101105 533.0 
443.106964 136.0 
444.410095 160.0 
445.061157 719.0 
446.048737 201.0 
447.095825 179.0 
453.100891 1538.0 
454.076691 87.0 
455.020782 402.0 
455.078186 2304.0 
455.176025 86.0 
456.088226 433.0 
457.08017 194.0 
457.838684 131.0 
458.864258 185.0 
464.710358 106.0 
465.098755 136.0 
466.09787 105.0 
468.078552 101.0 
469.088409 684.0 
471.103943 129.0 
478.899078 156.0 
479.094666 384.0 
481.009033 70.0 
482.260712 126.0 
482.869354 278.0 
485.912811 218.0 
490.242859 230.0 
491.350006 167.0 
493.090424 176.0 
495.110748 2313.0 
496.115356 83.0 
496.587738 228.0 
497.089813 3414.0 
498.037933 87.0 
498.110321 879.0 
498.88797 143.0 
499.088196 251.0 
502.942017 260.0 
511.102661 434.0 
511.694824 272.0 
512.092041 82.0 
514.202881 186.0 
521.096375 1389.0 
522.062439 152.0 
522.101135 445.0 
529.715088 250.0 
532.994629 80.0 
534.497437 147.0 
534.986267 164.0 
535.023987 210.0 
536.045105 263.0 
536.50116 185.0 
536.571106 118.0 
536.68219 285.0 
536.767395 148.0 
536.88208 159.0 
537.080383 190.0 
537.37793 81.0 
537.767517 170.0 
537.832092 144.0 
537.938171 118.0 
537.99292 109.0 
538.032288 416.0 
538.103882 315.0 
538.167236 243.0 
538.245117 106.0 
538.379211 185.0 
538.500366 80.0 
538.557251 191.0 
538.619751 341.0 
538.712097 252.0 
538.843262 529.0 
538.891907 905.0 
538.976379 2184.0 
539.100037 321484.0 
539.223755 477.0 
539.270935 422.0 
539.325134 825.0 
539.423157 173.0 
539.51947 261.0 
539.661804 225.0 
539.725952 195.0 
539.759827 213.0 
539.965759 697.0 
540.015259 1641.0 
540.103333 72487.0 
540.214111 546.0 
540.249451 422.0 
540.32019 104.0 
540.374207 229.0 
540.563843 197.0 
540.740906 219.0 
540.839233 174.0 
541.03125 75.0 
541.102722 5534.0 
541.315247 338.0 
541.818237 138.0 
542.10553 124.0 
542.447205 89.0 
542.936157 154.0 
543.265808 94.0 
543.322815 250.0 
543.372986 278.0 
543.473938 128.0 
543.516541 115.0 
543.785706 225.0 
543.888794 92.0 
544.531189 88.0 
555.213257 101.0 
555.651733 88.0 
557.290527 94.0 
563.159241 102.0 
666.997314 175.0 
920.604736 200.0 
1921.172363 130.0 
END IONS

BEGIN IONS
TITLE=Scan Number: 506
PEPMASS=329.17401
CHARGE=1+
MSLEVEL=2
FILENAME=A8_GA8_01_2906.mzXML
INSTRUMENT=ion trap
SCANS=506
SMILES=COC1=C(CC2OC2(C)C)C=C3C=C(C(=O)OC3=C1)C(C)(C)C=C
INCHIKEY=BEFLWKHENQGMGF-UHFFFAOYSA-N
71.050591 216.0 
71.203522 61.0 
72.372978 254.0 
74.3936 317.0 
74.925041 116.0 
75.494698 106.0 
75.996513 315.0 
79.054253 323.0 
79.433182 169.0 
80.951889 306.0 
81.055023 183.0 
81.291031 259.0 
81.799629 274.0 
82.036697 130.0 
84.128502 121.0 
84.47345 99.0 
87.232368 182.0 
90.047951 258.0 
91.054024 2781.0 
92.897675 187.0 
93.060715 379.0 
94.59948 264.0 
94.965004 105.0 
95.049408 340.0 
95.383934 147.0 
96.045479 283.0 
97.002495 171.0 
98.181992 109.0 
99.097328 114.0 
100.189217 339.0 
101.799591 238.0 
102.98275 312.0 
103.053818 246.0 
104.00087 91.0 
104.062225 326.0 
104.512535 178.0 
104.546143 309.0 
105.039734 792.0 
105.070526 703.0 
106.334747 264.0 
106.641541 189.0 
107.049156 675.0 
108.055183 575.0 
110.843277 185.0 
110.966003 227.0 
111.966187 132.0 
114.098885 82.0 
114.842194 117.0 
115.054214 8302.0 
115.092613 227.0 
115.341835 123.0 
115.545334 264.0 
116.060745 3202.0 
116.595268 206.0 
117.069885 3928.0 
117.452614 78.0 
117.479149 166.0 
118.048141 226.0 
118.075249 821.0 
118.59642 177.0 
119.047478 368.0 
119.084236 630.0 
120.055878 175.0 
120.361305 323.0 
121.068703 179.0 
121.104759 253.0 
121.68428 78.0 
124.09314 236.0 
124.695641 223.0 
125.021248 115.0 
126.046204 223.0 
127.493492 99.0 
128.037445 453.0 
128.061096 9441.0 
128.198746 224.0 
128.593369 198.0 
129.069443 7543.0 
129.59491 250.0 
130.073807 809.0 
130.34903 175.0 
131.048248 9754.0 
131.085587 8743.0 
131.142258 179.0 
131.199265 138.0 
132.006775 258.0 
132.052124 1076.0 
132.089539 1060.0 
132.136414 60.0 
133.061752 808.0 
133.092651 218.0 
133.396637 177.0 
133.462967 211.0 
134.077469 194.0 
135.078094 265.0 
137.058136 794.0 
137.737823 328.0 
138.712753 314.0 
139.753601 186.0 
141.069427 2694.0 
141.311935 160.0 
142.078888 1764.0 
142.871719 163.0 
143.028275 123.0 
143.049973 715.0 
143.086899 1473.0 
143.198822 77.0 
143.414124 247.0 
143.457489 140.0 
143.592239 214.0 
143.662933 115.0 
144.056793 68134.0 
144.094467 491.0 
144.17601 391.0 
144.204315 111.0 
144.265167 187.0 
144.452866 83.0 
144.950668 65.0 
145.064407 77779.0 
145.099014 956.0 
145.140198 104.0 
145.27536 81.0 
145.389709 162.0 
145.702133 50.0 
146.069717 13360.0 
146.192368 262.0 
146.440903 137.0 
146.62413 74.0 
147.042862 235.0 
147.07785 1473.0 
147.111786 93.0 
147.305252 71.0 
147.946899 54.0 
148.036743 146.0 
149.056015 355.0 
150.068283 156.0 
151.077377 128.0 
151.149933 196.0 
151.423279 160.0 
152.061203 304.0 
152.313843 85.0 
153.073517 608.0 
153.213974 84.0 
153.994904 183.0 
154.075516 1050.0 
154.127335 224.0 
154.344116 274.0 
155.058838 2748.0 
155.08432 1053.0 
155.242172 275.0 
155.808792 351.0 
156.057602 577.0 
156.09761 468.0 
157.018661 287.0 
157.065598 12084.0 
157.101196 2171.0 
157.587646 259.0 
158.071884 14256.0 
158.308197 351.0 
158.388489 255.0 
158.565826 160.0 
158.858231 262.0 
159.043335 15603.0 
159.080353 43493.0 
159.11467 358.0 
160.048676 2708.0 
160.085693 5488.0 
160.121994 357.0 
160.310486 70.0 
160.358307 73.0 
160.602539 83.0 
161.057816 1076.0 
161.087585 346.0 
161.301331 142.0 
161.318939 246.0 
161.396576 188.0 
161.420517 133.0 
161.934601 203.0 
162.0979 217.0 
162.45813 248.0 
163.035477 204.0 
163.078613 183.0 
163.151535 195.0 
165.065857 1369.0 
166.07785 355.0 
167.066299 372.0 
167.08548 798.0 
168.954956 76.0 
169.02327 222.0 
169.075409 994.0 
169.096893 847.0 
169.761322 262.0 
170.069534 850.0 
170.09993 170.0 
171.0457 196.0 
171.079895 2030.0 
171.117157 176.0 
171.16275 290.0 
171.220322 78.0 
171.576355 185.0 
171.701248 120.0 
172.020874 699.0 
172.051834 38569.0 
172.09201 1289.0 
172.215805 53.0 
172.808136 168.0 
172.94252 140.0 
173.058456 33779.0 
173.0952 2171.0 
173.136658 172.0 
173.216705 62.0 
173.235748 68.0 
173.261826 169.0 
173.477783 93.0 
173.591202 81.0 
174.018417 89.0 
174.066101 23378.0 
174.265106 53.0 
174.426025 53.0 
174.464828 173.0 
174.541428 83.0 
174.91629 236.0 
175.040405 657.0 
175.072662 4836.0 
175.117172 367.0 
175.205185 99.0 
175.317795 210.0 
175.48024 102.0 
175.557144 81.0 
176.085999 333.0 
176.253738 259.0 
177.05484 675.0 
177.287994 121.0 
177.574539 223.0 
178.073639 248.0 
179.094421 168.0 
179.197647 424.0 
180.091156 139.0 
180.723328 89.0 
181.099197 661.0 
181.750336 224.0 
182.075409 104.0 
182.126328 173.0 
183.078705 474.0 
183.656631 258.0 
184.087311 784.0 
184.148849 368.0 
185.019669 357.0 
185.05954 9398.0 
185.094772 2244.0 
185.667648 53.0 
186.066971 14558.0 
186.101562 1313.0 
186.198669 327.0 
186.554977 121.0 
186.88121 134.0 
186.983398 191.0 
187.03862 9023.0 
187.07486 57110.0 
187.114853 1170.0 
187.320007 57.0 
187.356491 95.0 
187.524002 106.0 
187.552826 151.0 
187.930664 73.0 
188.046432 1121.0 
188.079376 10879.0 
188.52327 159.0 
188.575806 49.0 
188.658783 159.0 
188.949707 73.0 
189.021591 329.0 
189.053833 1232.0 
189.089569 3659.0 
189.191971 116.0 
189.396835 133.0 
189.489014 125.0 
190.064606 796.0 
190.096313 186.0 
190.129028 183.0 
191.063004 408.0 
191.090607 357.0 
191.831284 148.0 
192.051132 183.0 
192.674637 211.0 
192.69928 349.0 
193.064621 149.0 
193.093307 183.0 
193.657089 53.0 
194.068985 100.0 
194.106201 127.0 
195.044525 345.0 
195.079575 260.0 
196.265945 51.0 
196.420197 94.0 
196.904755 276.0 
197.053055 528.0 
197.095764 821.0 
197.455154 56.0 
198.06575 1056.0 
198.102066 593.0 
198.13208 176.0 
198.581085 210.0 
199.041031 163.0 
199.075195 1814.0 
199.110535 1240.0 
200.046188 230.0 
200.083389 938.0 
201.055344 3181.0 
201.089981 2453.0 
201.127045 165.0 
201.227432 122.0 
201.424942 172.0 
201.648895 147.0 
201.695938 188.0 
201.878113 124.0 
202.061523 50524.0 
202.099457 1394.0 
202.408737 104.0 
202.549133 147.0 
203.066605 6559.0 
203.104553 306.0 
203.136826 70.0 
203.230164 59.0 
203.861725 137.0 
204.005051 243.0 
204.040512 894.0 
204.073822 556.0 
204.625519 204.0 
204.772995 55.0 
205.050568 2014.0 
205.102707 167.0 
205.719879 255.0 
205.769989 224.0 
205.833221 61.0 
206.073395 301.0 
207.048553 194.0 
207.473358 90.0 
208.335678 403.0 
209.093979 635.0 
210.06897 323.0 
210.107071 126.0 
211.01857 181.0 
211.075104 823.0 
211.111572 170.0 
212.082291 1561.0 
212.117752 304.0 
212.439331 199.0 
213.090027 1476.0 
213.128021 93.0 
213.961731 230.0 
214.069824 551.0 
214.099899 700.0 
214.318771 204.0 
214.649445 262.0 
214.732056 108.0 
215.000153 225.0 
215.069168 27582.0 
215.104813 2520.0 
215.143555 63.0 
215.40976 85.0 
216.00592 485.0 
216.076447 19603.0 
216.113327 1069.0 
216.948135 122.0 
217.081345 4334.0 
217.12056 473.0 
217.229568 86.0 
217.820877 119.0 
218.024887 159.0 
218.059326 1238.0 
218.090698 196.0 
218.416565 131.0 
218.467911 151.0 
218.540665 226.0 
218.693146 166.0 
219.061768 325.0 
219.101898 286.0 
219.650162 134.0 
220.5056 99.0 
221.097748 173.0 
221.115723 233.0 
221.777542 219.0 
222.95076 214.0 
223.075974 175.0 
223.111832 211.0 
224.051132 82.0 
224.081268 360.0 
224.122757 143.0 
225.054642 155.0 
225.090042 601.0 
226.018799 99.0 
226.06189 325.0 
226.094116 1290.0 
226.746536 179.0 
227.027405 52.0 
227.070709 701.0 
227.106476 1990.0 
227.317535 277.0 
228.116943 511.0 
229.025345 330.0 
229.054123 388.0 
229.084061 1749.0 
229.119553 2723.0 
230.054718 157.0 
230.102509 881.0 
231.060196 577.0 
231.097656 134.0 
236.081863 394.0 
237.082657 311.0 
237.112793 175.0 
238.097351 393.0 
239.069717 916.0 
239.108139 885.0 
240.08168 221.0 
240.111176 244.0 
241.083542 1438.0 
241.124329 1021.0 
242.095688 133.0 
242.120804 281.0 
242.745636 224.0 
242.968613 201.0 
243.01384 184.0 
243.10202 1707.0 
244.099976 545.0 
244.955536 209.0 
245.080139 539.0 
245.114929 2633.0 
246.116989 482.0 
247.132721 266.0 
250.348236 67.0 
250.478485 155.0 
251.102325 344.0 
253.065277 144.0 
253.09845 233.0 
253.199905 51.0 
254.090912 1198.0 
254.123764 197.0 
254.22937 219.0 
255.101013 668.0 
255.648926 88.0 
256.105316 570.0 
257.115814 817.0 
257.68631 139.0 
258.089905 187.0 
258.125122 793.0 
259.132477 1265.0 
260.137604 349.0 
261.110016 879.0 
263.602631 72.0 
263.643982 94.0 
264.116638 202.0 
264.536621 226.0 
265.047363 94.0 
266.042175 123.0 
267.098816 167.0 
268.111755 295.0 
268.4487 63.0 
269.07663 311.0 
269.108765 323.0 
270.124329 277.0 
271.571167 184.0 
271.842896 94.0 
271.884888 94.0 
272.080475 251.0 
272.522003 60.0 
272.593658 73.0 
272.653625 226.0 
272.74231 69.0 
272.772552 142.0 
272.796204 225.0 
272.872528 260.0 
272.938171 208.0 
273.003387 504.0 
273.032501 799.0 
273.111176 211008.0 
273.418213 132.0 
273.470184 159.0 
273.514526 118.0 
273.553375 327.0 
273.621124 422.0 
273.661011 57.0 
273.862549 200.0 
274.072388 809.0 
274.114349 24797.0 
274.217896 102.0 
274.661591 120.0 
274.750641 129.0 
275.118591 429.0 
275.216278 90.0 
275.353149 80.0 
275.694031 301.0 
275.78006 95.0 
275.821747 50.0 
275.859131 72.0 
275.910156 54.0 
276.011017 167.0 
276.125824 238.0 
276.169037 373.0 
276.188416 365.0 
276.297272 83.0 
277.115112 89.0 
277.576111 92.0 
277.667664 102.0 
278.572784 139.0 
285.90451 69.0 
286.074738 303.0 
286.116364 132.0 
286.150116 113.0 
286.271301 149.0 
286.378021 145.0 
286.465912 273.0 
286.576508 84.0 
286.745728 121.0 
286.874939 99.0 
286.94754 150.0 
287.126801 173807.0 
287.208282 102.0 
287.296051 211.0 
287.355774 85.0 
287.444092 66.0 
287.472107 152.0 
287.576294 185.0 
287.781494 265.0 
287.85556 278.0 
287.897583 78.0 
288.026245 454.0 
288.130524 26082.0 
288.241516 109.0 
288.330109 120.0 
288.397858 101.0 
288.478394 71.0 
288.945404 99.0 
288.988678 64.0 
289.139801 620.0 
289.185638 78.0 
289.571014 57.0 
289.877777 125.0 
289.938019 72.0 
290.075653 70.0 
290.160217 51.0 
290.213989 81.0 
290.288391 125.0 
290.325623 59.0 
290.369629 86.0 
290.841919 80.0 
290.983307 86.0 
291.683044 80.0 
292.336731 89.0 
292.41571 94.0 
298.72168 61.0 
301.141449 1653.0 
301.180908 790.0 
301.651062 234.0 
302.143372 297.0 
302.547577 80.0 
304.15213 256.0 
304.330231 96.0 
305.143372 197.0 
310.265625 57.0 
311.158539 587.0 
311.250824 250.0 
313.146576 294.0 
320.81543 114.0 
324.62384 142.0 
325.848053 232.0 
327.344177 85.0 
328.146515 117.0 
328.177185 309.0 
328.345001 95.0 
328.478973 122.0 
328.621033 132.0 
328.65509 77.0 
328.810059 86.0 
328.865875 396.0 
329.021576 616.0 
329.174103 102814.0 
329.265594 61.0 
329.313019 130.0 
329.482391 54.0 
329.523071 67.0 
329.82196 51.0 
330.17804 12965.0 
330.249634 102.0 
330.466278 99.0 
331.045319 63.0 
331.160431 118.0 
332.422852 73.0 
333.328766 65.0 
333.370758 108.0 
335.891998 94.0 
341.799255 59.0 
346.729248 83.0 
359.945007 73.0 
385.20813 62.0 
459.337372 55.0 
596.031677 267.0 
622.654602 65.0 
673.660645 131.0 
1089.21106 96.0 
1159.855225 275.0 
1566.525391 225.0 
1616.422241 145.0 
1699.757324 145.0 
1831.636475 243.0 
1929.374634 218.0 
1984.188354 150.0 
END IONS

BEGIN IONS
TITLE=Scan Number: 507
PEPMASS=345.133
CHARGE=1+
MSLEVEL=2
FILENAME=A8_GA8_01_2906.mzXML
INSTRUMENT=ion trap
SCANS=507
SMILES=C\C=C(\C)C(=O)OC1C(O)C(C)(C)OC2=CC=C3C=CC(=O)OC3=C12
INCHIKEY=QPLSCFLMIOADPA-YHYXMXQVSA-N
83.05481 115.0 
91.05542 196.0 
107.047554 298.0 
128.063629 129.0 
129.070938 201.0 
131.047516 851.0 
133.03476 253.0 
143.051529 146.0 
143.084167 137.0 
147.042191 136.0 
147.081436 200.0 
148.051041 120.0 
155.062088 107.0 
159.083679 353.0 
160.048981 137.0 
172.077545 495.0 
175.039673 1833.0 
175.082199 306.0 
176.039474 166.0 
187.041016 511.0 
199.045242 160.0 
203.070786 4829.0 
203.107803 104.0 
204.06987 165.0 
212.048447 209.0 
245.078766 449.0 
247.095474 180.0 
257.11853 99.0 
281.157318 112.0 
309.145447 192.0 
326.249176 289.0 
344.258545 96.0 
END IONS

BEGIN IONS
TITLE=Scan Number: 509
PEPMASS=362.16
CHARGE=1+
MSLEVEL=2
FILENAME=A8_GA8_01_2906.mzXML
INSTRUMENT=ion trap
SCANS=509
SMILES=C\C=C(\C)C(=O)OC1C(O)C(C)(C)OC2=CC=C3C=CC(=O)OC3=C12
INCHIKEY=QPLSCFLMIOADPA-YHYXMXQVSA-N
75.465355 240.0 
75.818474 180.0 
76.460724 329.0 
79.736549 173.0 
80.058662 147.0 
80.422363 271.0 
80.910805 235.0 
81.990829 126.0 
83.238129 165.0 
86.830849 197.0 
87.883232 220.0 
91.020752 179.0 
91.053391 1217.0 
93.033691 162.0 
95.111916 114.0 
103.051033 72.0 
105.042099 307.0 
105.070648 232.0 
105.539322 292.0 
107.050293 893.0 
108.055008 376.0 
109.032112 88.0 
114.113533 143.0 
115.055214 1095.0 
116.033257 122.0 
116.064171 698.0 
116.283676 152.0 
117.071907 109.0 
117.450157 236.0 
118.036682 229.0 
118.265968 151.0 
119.049339 267.0 
119.087311 1429.0 
121.026154 336.0 
122.324966 215.0 
123.897003 121.0 
124.892166 109.0 
125.472076 363.0 
125.525871 78.0 
128.061691 1197.0 
129.050446 134.0 
129.070694 940.0 
131.050507 6064.0 
131.090454 426.0 
131.444611 121.0 
132.055496 1197.0 
133.008316 327.0 
133.026169 562.0 
133.064911 214.0 
134.040726 704.0 
137.05928 495.0 
140.163788 170.0 
141.069305 401.0 
143.050858 784.0 
143.078049 236.0 
144.060822 833.0 
144.999222 203.0 
145.064774 777.0 
146.41452 106.0 
147.005981 171.0 
147.044952 10865.0 
147.080795 3188.0 
148.020721 175.0 
148.047638 460.0 
149.063293 169.0 
149.351074 91.0 
149.381256 63.0 
152.79834 77.0 
153.078232 222.0 
155.055771 443.0 
156.008331 275.0 
157.064209 166.0 
158.055618 162.0 
158.07579 177.0 
159.044952 1470.0 
159.080734 1083.0 
160.051331 1079.0 
161.03009 182.0 
161.064331 187.0 
162.030518 352.0 
162.323685 190.0 
163.042526 407.0 
163.444733 187.0 
163.478195 75.0 
169.07016 103.0 
171.089905 231.0 
172.085861 140.0 
173.387085 247.0 
174.020081 153.0 
174.186142 136.0 
174.502853 87.0 
174.613922 206.0 
174.660416 121.0 
174.719498 207.0 
174.854416 243.0 
175.040009 71767.0 
175.073257 1288.0 
175.152405 229.0 
175.248947 261.0 
175.28273 202.0 
175.323563 200.0 
175.384232 234.0 
175.515244 112.0 
175.847763 103.0 
175.944061 73.0 
176.043671 6581.0 
176.276932 81.0 
176.656601 99.0 
177.369049 245.0 
178.470856 83.0 
179.710938 346.0 
179.863495 63.0 
181.063202 122.0 
182.076324 252.0 
182.990341 325.0 
184.056 324.0 
184.252823 252.0 
184.421814 123.0 
185.059113 399.0 
186.137543 100.0 
187.040085 23076.0 
188.044067 659.0 
188.077347 332.0 
189.019501 172.0 
189.260361 132.0 
191.030884 702.0 
192.22963 121.0 
193.031906 170.0 
197.057892 186.0 
197.902161 182.0 
199.039291 182.0 
199.076584 1201.0 
201.612289 181.0 
201.912186 308.0 
202.084457 179.0 
202.562164 223.0 
202.684219 301.0 
202.758575 398.0 
202.840027 112.0 
202.870575 206.0 
202.921051 77.0 
203.071136 219904.0 
203.133606 225.0 
203.196213 145.0 
203.282455 93.0 
203.310501 310.0 
203.514175 192.0 
203.807205 204.0 
203.871368 178.0 
204.074921 17949.0 
204.13707 170.0 
204.252075 162.0 
204.360229 109.0 
204.774048 89.0 
205.083359 318.0 
205.383148 116.0 
205.595154 135.0 
205.650436 234.0 
205.724701 92.0 
205.764999 108.0 
205.892914 158.0 
206.715546 89.0 
211.473007 157.0 
212.044662 139.0 
215.067657 416.0 
216.076431 361.0 
217.086578 721.0 
221.084396 91.0 
222.090424 226.0 
226.125641 126.0 
227.069885 1775.0 
228.070145 317.0 
229.059448 229.0 
232.879166 127.0 
234.480606 70.0 
245.081818 21830.0 
245.648392 130.0 
245.984207 239.0 
246.083557 1171.0 
246.561371 74.0 
258.79895 87.0 
263.096375 133.0 
283.616241 76.0 
553.066589 182.0 
793.113403 78.0 
1029.794434 93.0 
1547.567871 235.0 
1957.836426 207.0 
END IONS

BEGIN IONS
TITLE=Scan Number: 514
PEPMASS=299.164
CHARGE=1+
MSLEVEL=2
FILENAME=A2_RA2_01_2655.mzXML
INSTRUMENT=ion trap
SCANS=514
SMILES=CC(C)=CCC1=C(O)C=C2OC(=O)C(=CC2=C1)C(C)(C)C=C
INCHIKEY=HEPYYVMIJBDNIM-UHFFFAOYSA-N
76.332802 250.0 
77.035789 295.0 
77.133186 106.0 
77.48082 233.0 
77.74482 84.0 
78.044029 277.0 
78.19545 111.0 
78.319542 281.0 
78.43 193.0 
79.053825 3248.0 
79.529945 171.0 
79.69136 310.0 
81.071098 730.0 
82.491486 244.0 
82.90329 257.0 
82.98777 249.0 
83.82991 259.0 
83.874199 223.0 
84.615387 326.0 
87.020584 202.0 
87.712402 212.0 
88.022873 126.0 
88.181404 213.0 
88.530418 287.0 
89.038025 1340.0 
89.333542 181.0 
89.805267 204.0 
89.897636 178.0 
90.043221 317.0 
90.747467 130.0 
91.054298 17164.0 
91.21373 181.0 
91.622452 187.0 
92.011673 166.0 
92.058563 1350.0 
92.868584 274.0 
93.036186 550.0 
93.071342 927.0 
93.331963 331.0 
93.569283 374.0 
94.177437 217.0 
94.874268 240.0 
95.047806 1615.0 
95.102989 256.0 
95.424965 210.0 
96.573967 164.0 
96.614769 272.0 
96.80159 227.0 
97.064598 179.0 
97.423882 145.0 
98.333885 183.0 
99.373192 174.0 
101.372932 188.0 
101.947197 228.0 
102.048111 174.0 
102.43708 113.0 
102.997688 338.0 
103.053909 12744.0 
103.095238 106.0 
103.221802 124.0 
103.332947 133.0 
103.601501 268.0 
104.057419 2068.0 
104.861 202.0 
105.04425 3816.0 
105.068962 8032.0 
105.366081 299.0 
106.045807 259.0 
106.072662 1398.0 
106.1548 274.0 
106.193977 164.0 
106.88382 165.0 
107.050903 1414.0 
107.084709 209.0 
107.136559 130.0 
107.336296 104.0 
108.403198 283.0 
108.634529 322.0 
109.033264 253.0 
111.108681 220.0 
111.134727 200.0 
111.952515 285.0 
112.263611 115.0 
112.934753 91.0 
113.056526 83.0 
113.176842 255.0 
113.528549 254.0 
113.871819 191.0 
114.043953 435.0 
114.494034 183.0 
115.053612 30763.0 
116.039543 142.0 
116.059982 5049.0 
116.309219 185.0 
116.546013 92.0 
116.93045 144.0 
117.037918 945.0 
117.068787 15322.0 
117.605171 234.0 
117.684219 371.0 
118.038452 1315.0 
118.073059 1489.0 
118.578667 157.0 
118.906685 97.0 
119.048683 48258.0 
119.080368 566.0 
119.969925 135.0 
120.052719 4427.0 
120.087097 250.0 
121.031349 588.0 
121.067169 341.0 
121.094719 360.0 
121.454224 130.0 
122.069138 212.0 
122.327248 301.0 
123.041122 271.0 
123.159935 259.0 
124.040764 200.0 
126.043526 361.0 
126.82975 96.0 
127.052895 1150.0 
127.34362 113.0 
128.022156 181.0 
128.061661 14021.0 
128.146942 162.0 
128.357513 294.0 
128.75853 102.0 
129.068634 9599.0 
129.277512 248.0 
130.042816 1464.0 
130.077988 1392.0 
130.209015 201.0 
130.849365 169.0 
131.048737 26586.0 
131.085678 3883.0 
131.956467 134.0 
132.056686 9302.0 
132.088654 732.0 
132.160721 90.0 
133.028259 449.0 
133.06424 32747.0 
133.101746 547.0 
133.190704 220.0 
133.41066 392.0 
133.97583 189.0 
133.992889 203.0 
134.06781 3137.0 
134.457458 142.0 
135.042221 1248.0 
135.079056 407.0 
135.140442 100.0 
136.043015 192.0 
136.081039 113.0 
136.677261 216.0 
136.892609 179.0 
137.054367 362.0 
138.782791 94.0 
139.049774 163.0 
139.478195 131.0 
140.067276 286.0 
140.820251 266.0 
140.915482 239.0 
141.070038 3903.0 
142.0737 734.0 
143.051498 1818.0 
143.084595 1534.0 
143.766327 241.0 
144.032669 644.0 
144.055771 5532.0 
144.090591 882.0 
144.296646 221.0 
144.922623 160.0 
145.028961 4770.0 
145.064407 37957.0 
145.100311 3457.0 
146.036667 602.0 
146.070175 8651.0 
146.10498 514.0 
146.303864 97.0 
146.554306 92.0 
146.82959 110.0 
147.044022 3129.0 
147.078918 1546.0 
147.358643 156.0 
148.053375 346.0 
148.117905 271.0 
149.059204 760.0 
150.064209 330.0 
151.396286 237.0 
152.058609 746.0 
153.068787 2422.0 
153.413193 206.0 
154.077713 3892.0 
154.213745 375.0 
154.656586 190.0 
154.772522 132.0 
155.020981 295.0 
155.05925 9402.0 
155.085571 2293.0 
156.062637 1964.0 
156.091522 1664.0 
157.001114 115.0 
157.064331 11097.0 
157.096985 643.0 
157.391434 142.0 
157.60144 154.0 
158.036865 423.0 
158.072357 5841.0 
158.108109 151.0 
158.133255 159.0 
158.370392 254.0 
158.796844 241.0 
159.043976 55220.0 
159.080414 6608.0 
159.361938 143.0 
159.69455 103.0 
160.050476 30216.0 
160.084 1311.0 
160.168472 316.0 
160.365402 108.0 
160.461777 82.0 
160.783997 129.0 
160.813141 82.0 
161.021088 176.0 
161.057831 5908.0 
161.095596 328.0 
161.146439 252.0 
161.239532 152.0 
161.3022 273.0 
161.319901 510.0 
162.025864 107.0 
162.063339 493.0 
163.035934 796.0 
163.072235 558.0 
163.524628 96.0 
163.666962 221.0 
163.97345 271.0 
164.442612 241.0 
165.068573 2219.0 
165.117493 86.0 
165.283356 133.0 
165.417007 95.0 
165.631332 217.0 
166.073563 727.0 
166.838303 283.0 
167.082428 404.0 
168.061417 973.0 
168.411743 89.0 
168.655167 169.0 
169.063263 2762.0 
169.099701 2131.0 
169.993042 100.0 
170.068481 2058.0 
171.044357 2641.0 
171.077209 3798.0 
171.567307 450.0 
172.050568 2293.0 
172.086746 4017.0 
172.504669 203.0 
172.575668 262.0 
172.651459 348.0 
172.685501 250.0 
173.059296 98548.0 
173.090836 3309.0 
173.267899 101.0 
173.300797 127.0 
173.593506 261.0 
174.029922 612.0 
174.065079 32120.0 
174.096466 371.0 
174.311874 80.0 
174.42247 164.0 
174.934631 190.0 
174.958511 219.0 
175.038269 4429.0 
175.071732 3466.0 
175.111389 459.0 
175.752686 267.0 
176.04715 912.0 
176.60054 145.0 
176.824463 348.0 
177.055191 246.0 
177.091843 117.0 
177.829651 104.0 
179.05896 187.0 
179.085434 329.0 
179.745697 235.0 
180.100449 379.0 
180.295319 195.0 
180.544113 206.0 
181.065491 1773.0 
181.100128 628.0 
181.138718 296.0 
182.074173 3546.0 
182.10585 175.0 
182.483704 272.0 
182.554535 74.0 
183.080368 2284.0 
183.111206 176.0 
184.049194 1584.0 
184.089752 897.0 
184.119263 144.0 
184.576645 75.0 
184.895218 126.0 
185.008713 132.0 
185.059402 13749.0 
185.096146 421.0 
185.428146 97.0 
185.635666 109.0 
186.066223 4483.0 
186.189178 165.0 
186.871872 249.0 
186.924652 94.0 
187.038544 120994.0 
187.0746 11094.0 
187.111801 1684.0 
187.240875 155.0 
187.991135 83.0 
188.043716 16991.0 
188.08168 2148.0 
188.117599 336.0 
188.21907 450.0 
188.920837 330.0 
189.024689 183.0 
189.052841 3293.0 
189.093597 1472.0 
189.146133 123.0 
189.488419 92.0 
189.630447 150.0 
189.741898 230.0 
190.263641 172.0 
190.677582 206.0 
190.736526 142.0 
190.898636 221.0 
191.028839 174.0 
191.105606 284.0 
192.779877 192.0 
193.089203 132.0 
195.073471 700.0 
195.690552 209.0 
196.049988 184.0 
196.084869 383.0 
196.405014 292.0 
197.063644 440.0 
197.095215 10009.0 
197.564316 88.0 
198.065552 186.0 
198.10112 1504.0 
198.92804 96.0 
199.036407 1042.0 
199.075638 7230.0 
199.118393 169.0 
199.211487 448.0 
199.581375 93.0 
199.799393 222.0 
199.908997 317.0 
199.987686 242.0 
200.04628 1776.0 
200.081833 4957.0 
200.11705 137.0 
200.138641 174.0 
200.72348 125.0 
200.758438 177.0 
200.937408 265.0 
200.979324 843.0 
201.054306 226633.0 
201.090302 8191.0 
201.126617 744.0 
201.180466 138.0 
201.251953 218.0 
201.273712 160.0 
201.309982 149.0 
201.400284 110.0 
201.470322 253.0 
201.517944 106.0 
201.656113 306.0 
201.793381 237.0 
201.844452 116.0 
202.058334 32477.0 
202.095215 1624.0 
202.386719 116.0 
202.630768 120.0 
203.066391 2097.0 
203.105927 931.0 
203.32016 110.0 
203.455948 166.0 
203.575668 167.0 
203.650436 209.0 
203.701981 105.0 
204.076721 164.0 
204.655548 105.0 
204.717453 98.0 
205.048477 13227.0 
205.084412 491.0 
205.1642 153.0 
206.04985 1146.0 
208.090408 104.0 
208.600235 99.0 
209.658752 138.0 
210.064667 823.0 
210.102325 107.0 
210.343979 212.0 
210.547714 121.0 
210.612915 111.0 
211.072449 896.0 
211.111359 917.0 
211.697968 281.0 
212.04364 213.0 
212.092789 307.0 
212.261169 345.0 
212.695892 124.0 
213.053635 5477.0 
213.091873 596.0 
213.868744 209.0 
214.061249 2865.0 
214.103561 435.0 
214.977478 175.0 
215.026474 653.0 
215.069992 24812.0 
215.10675 10304.0 
215.158142 79.0 
215.516174 307.0 
215.69809 103.0 
216.069626 2319.0 
216.108994 712.0 
216.309662 187.0 
217.086304 508.0 
217.122147 248.0 
219.063782 3707.0 
220.077133 231.0 
221.006989 183.0 
221.630798 131.0 
223.079559 179.0 
223.198441 199.0 
224.099152 189.0 
224.565903 81.0 
225.036972 193.0 
225.090057 20739.0 
226.062973 338.0 
226.093552 2328.0 
226.636292 100.0 
227.068192 2781.0 
227.223267 93.0 
227.302124 268.0 
228.078232 4379.0 
228.31163 148.0 
228.623642 146.0 
229.083252 4283.0 
229.12262 4152.0 
229.158875 198.0 
229.377609 165.0 
229.496307 250.0 
229.73645 147.0 
229.760727 209.0 
230.090363 977.0 
230.736618 175.0 
231.100174 3512.0 
231.852386 163.0 
231.959671 109.0 
232.111603 198.0 
234.054184 180.0 
234.701096 275.0 
234.969101 170.0 
235.740921 129.0 
236.878418 169.0 
237.098923 259.0 
237.208771 107.0 
237.438477 268.0 
238.09938 138.0 
239.104309 2489.0 
239.420364 236.0 
239.803284 99.0 
240.113815 123.0 
240.561493 159.0 
241.026627 130.0 
241.086166 907.0 
241.127228 322.0 
241.177338 95.0 
241.350281 138.0 
241.45256 223.0 
241.577652 365.0 
242.020325 136.0 
242.090866 862.0 
242.188202 166.0 
242.282608 186.0 
242.470657 129.0 
242.558258 283.0 
242.786713 125.0 
242.832169 247.0 
243.001328 664.0 
243.101028 418804.0 
243.208694 262.0 
243.285263 576.0 
243.335358 105.0 
243.376617 244.0 
243.418259 423.0 
243.493774 236.0 
243.564575 237.0 
243.69632 272.0 
243.735825 274.0 
243.786728 226.0 
243.84317 142.0 
243.916885 114.0 
243.982285 99.0 
244.104721 43325.0 
244.195526 178.0 
244.323975 132.0 
244.605606 109.0 
244.704666 148.0 
244.937759 80.0 
245.170441 108.0 
245.417068 179.0 
245.52327 150.0 
245.575668 226.0 
245.646393 130.0 
245.684998 103.0 
245.707565 160.0 
245.76683 188.0 
245.817383 303.0 
245.869202 185.0 
246.0289 347.0 
246.107086 105.0 
248.128784 142.0 
248.386185 125.0 
248.51329 106.0 
248.884048 161.0 
252.806564 204.0 
253.077026 170.0 
254.782791 251.0 
254.816299 123.0 
255.095657 312.0 
255.138153 137.0 
255.167923 215.0 
255.39357 95.0 
256.105621 236.0 
256.148163 404.0 
256.221283 287.0 
256.360138 115.0 
256.425293 256.0 
256.535156 139.0 
256.567535 337.0 
256.603363 148.0 
256.736023 294.0 
256.792969 417.0 
257.116791 354219.0 
257.200775 268.0 
257.356995 246.0 
257.404572 147.0 
257.472595 139.0 
257.507599 360.0 
257.626831 152.0 
257.74646 324.0 
257.810242 94.0 
257.86438 110.0 
257.923279 122.0 
258.119904 38432.0 
258.755463 161.0 
259.123108 591.0 
259.489136 92.0 
259.618835 219.0 
259.703033 136.0 
259.800323 240.0 
259.858093 223.0 
259.993927 164.0 
260.987823 206.0 
262.924622 177.0 
266.119934 231.0 
269.120514 1183.0 
270.108154 437.0 
271.071381 192.0 
271.131622 3422.0 
271.170593 1816.0 
272.122009 212.0 
272.164886 246.0 
272.423065 98.0 
272.80307 355.0 
281.152466 304.0 
282.447815 142.0 
283.131439 596.0 
284.139923 663.0 
294.333527 254.0 
297.324005 86.0 
297.586731 104.0 
298.068268 158.0 
298.208771 252.0 
298.542664 277.0 
298.614166 175.0 
298.789734 91.0 
298.895416 289.0 
299.047729 607.0 
299.163574 227988.0 
299.284454 216.0 
299.403473 223.0 
299.445923 139.0 
299.62265 326.0 
300.04834 156.0 
300.101318 317.0 
300.167267 27055.0 
300.297302 131.0 
301.372284 108.0 
301.770996 103.0 
301.858673 222.0 
302.007233 81.0 
302.039581 270.0 
302.132111 271.0 
302.181152 249.0 
302.396179 142.0 
310.041931 110.0 
311.18158 128.0 
313.369171 122.0 
357.168671 169.0 
366.106384 111.0 
546.309937 111.0 
744.689697 112.0 
813.745117 121.0 
833.289124 127.0 
1343.294189 152.0 
1465.366333 112.0 
1467.130493 136.0 
1481.63916 222.0 
1499.464966 226.0 
1535.476196 123.0 
1570.200806 183.0 
1708.265625 207.0 
1797.055542 181.0 
1825.66748 131.0 
1840.560303 134.0 
1848.711548 156.0 
1862.356567 285.0 
1883.456787 235.0 
1888.723145 347.0 
1890.345581 124.0 
1916.611938 356.0 
1927.731689 95.0 
1943.045654 129.0 
1950.156128 254.0 
1962.87085 177.0 
1978.123779 238.0 
1996.145874 287.0 
1999.496094 404.0 
2000.413818 248.0 
2003.709839 186.0 
END IONS

BEGIN IONS
TITLE=Scan Number: 515
PEPMASS=316.19101
CHARGE=1+
MSLEVEL=2
FILENAME=A2_RA2_01_2655.mzXML
INSTRUMENT=ion trap
SCANS=515
SMILES=CC(C)=CCC1=C(O)C=C2OC(=O)C(=CC2=C1)C(C)(C)C=C
INCHIKEY=HEPYYVMIJBDNIM-UHFFFAOYSA-N
75.463593 397.0 
76.056938 63.0 
76.226585 231.0 
76.668152 288.0 
77.039116 3487.0 
77.072914 23.0 
77.422821 208.0 
77.462097 52.0 
77.741966 104.0 
77.763802 83.0 
77.91024 269.0 
79.020447 310.0 
79.054001 16530.0 
79.100143 23.0 
79.124115 200.0 
79.274162 424.0 
79.538116 50.0 
80.055763 1981.0 
80.216515 86.0 
80.680801 332.0 
81.014816 218.0 
81.031685 604.0 
81.069519 15085.0 
81.130325 42.0 
81.158531 252.0 
81.803085 61.0 
81.902473 150.0 
82.038101 131.0 
82.066422 2738.0 
82.495972 373.0 
82.71907 181.0 
82.862503 256.0 
83.051132 267.0 
83.072281 1003.0 
83.088058 252.0 
83.217926 201.0 
83.406906 37.0 
83.59111 173.0 
83.968681 33.0 
84.046379 518.0 
84.080544 18851.0 
84.131668 42.0 
84.358093 23.0 
84.508125 174.0 
85.093872 413.0 
85.191322 30.0 
85.213318 183.0 
85.848946 37.0 
85.911209 37.0 
85.954277 88.0 
85.990654 101.0 
86.033005 87.0 
86.09623 44882.0 
86.125412 615.0 
86.201332 107.0 
86.331871 79.0 
86.40831 209.0 
86.528404 105.0 
86.79776 46.0 
86.825699 67.0 
86.950233 82.0 
87.100136 1352.0 
87.370285 76.0 
87.548172 47.0 
87.728531 304.0 
87.843872 93.0 
88.453377 83.0 
88.561195 78.0 
89.369461 234.0 
89.38224 251.0 
89.657173 164.0 
91.054039 7798.0 
91.666763 115.0 
91.978073 149.0 
92.055573 777.0 
92.475372 220.0 
92.558205 190.0 
92.647011 138.0 
92.690582 75.0 
92.939621 206.0 
93.032822 1537.0 
93.068329 218.0 
93.371521 102.0 
94.063416 336.0 
94.091019 407.0 
94.330589 116.0 
94.902283 252.0 
95.014816 260.0 
95.048981 8924.0 
95.08638 632.0 
95.133499 276.0 
95.292679 205.0 
96.030884 386.0 
96.049362 728.0 
96.081589 1750.0 
96.607887 334.0 
96.786911 165.0 
96.952103 65.0 
97.058647 145.0 
97.087486 337.0 
98.045372 334.0 
98.059868 940.0 
98.095955 46906.0 
98.152809 97.0 
98.216576 108.0 
98.285294 105.0 
98.660271 67.0 
98.771133 181.0 
98.877205 77.0 
99.049927 144.0 
99.068283 472.0 
99.099884 3076.0 
99.284492 27.0 
99.407516 155.0 
99.659134 259.0 
99.712395 112.0 
100.07457 240.0 
100.121925 103.0 
101.665886 135.0 
102.046227 580.0 
102.092743 137.0 
102.677597 174.0 
102.77803 145.0 
103.054062 22893.0 
103.392105 38.0 
104.059113 801.0 
104.091187 25.0 
104.787384 75.0 
105.00885 279.0 
105.037407 24034.0 
105.06955 10841.0 
106.043564 1466.0 
106.072144 186.0 
106.089523 167.0 
106.286575 91.0 
106.55542 120.0 
106.852715 157.0 
106.893951 155.0 
106.917496 117.0 
107.018112 1156.0 
107.049088 26445.0 
107.078934 50.0 
107.098137 34.0 
107.340508 120.0 
107.513245 71.0 
107.608795 62.0 
107.878479 29.0 
108.018967 171.0 
108.052124 1095.0 
108.079178 969.0 
108.365829 59.0 
108.496513 158.0 
108.616203 51.0 
108.911903 92.0 
109.065285 4156.0 
109.312523 187.0 
109.357819 89.0 
110.033676 149.0 
110.060265 2330.0 
110.095627 2530.0 
110.575249 47.0 
110.936058 149.0 
111.044472 686.0 
111.068764 1037.0 
111.098625 141.0 
111.36557 144.0 
111.527557 27.0 
111.941414 168.0 
112.040504 198.0 
112.075516 22429.0 
112.111656 432.0 
112.307785 102.0 
113.041824 206.0 
113.078812 383.0 
113.316017 270.0 
114.145142 179.0 
115.003181 300.0 
115.053871 3943.0 
115.088531 185.0 
115.771828 31.0 
115.833 346.0 
116.061874 2217.0 
116.17189 367.0 
116.484871 221.0 
116.516098 53.0 
117.00415 183.0 
117.029808 93.0 
117.06974 14795.0 
117.105858 144.0 
117.615974 221.0 
117.679153 54.0 
118.073822 1452.0 
118.720367 264.0 
119.047394 4135.0 
119.083267 1000.0 
119.104248 100.0 
119.207283 70.0 
119.302719 102.0 
120.022141 221.0 
120.05706 210.0 
120.082016 1564.0 
120.576927 225.0 
120.792473 164.0 
121.027969 1584.0 
121.064018 1786.0 
121.472816 93.0 
122.035606 1238.0 
122.096725 3401.0 
123.021248 290.0 
123.044296 1530.0 
123.104668 668.0 
123.155197 41.0 
124.071823 1094.0 
124.111656 8511.0 
124.207314 44.0 
125.079903 463.0 
125.11837 432.0 
125.188431 149.0 
126.047539 237.0 
126.092728 317.0 
126.127327 69.0 
126.781013 251.0 
127.051712 322.0 
127.221329 56.0 
127.615219 162.0 
127.868057 79.0 
128.002823 168.0 
128.061859 7384.0 
128.106873 569.0 
128.160309 106.0 
128.249008 43.0 
128.338104 84.0 
128.607254 83.0 
128.921616 58.0 
129.069717 34895.0 
129.167053 128.0 
129.326096 248.0 
129.78746 294.0 
129.849091 56.0 
129.876572 363.0 
130.075119 4912.0 
130.33371 180.0 
130.373795 178.0 
130.480362 255.0 
130.798172 305.0 
130.851685 118.0 
130.906052 151.0 
130.955093 103.0 
131.048813 38919.0 
131.08519 10343.0 
131.346375 123.0 
131.782852 177.0 
131.823486 178.0 
132.054092 4961.0 
132.091385 827.0 
132.346069 158.0 
133.065002 13691.0 
133.102859 128.0 
133.125732 50.0 
133.386215 198.0 
133.58078 132.0 
133.648407 58.0 
133.781296 219.0 
133.94014 224.0 
134.035858 252.0 
134.068024 1275.0 
134.096832 737.0 
134.120743 145.0 
134.493744 52.0 
134.664124 58.0 
134.728714 189.0 
134.750778 410.0 
134.786255 190.0 
134.809067 261.0 
134.866089 107.0 
134.922211 151.0 
134.986389 1374.0 
135.043747 673713.0 
135.098114 140.0 
135.120087 151.0 
135.169312 45.0 
135.194778 570.0 
135.242325 230.0 
135.304108 142.0 
135.326675 218.0 
135.356247 28.0 
135.382309 252.0 
135.412262 80.0 
135.483688 135.0 
135.508698 157.0 
135.557739 197.0 
135.61705 60.0 
135.705627 21.0 
135.732285 129.0 
135.768265 240.0 
135.799271 152.0 
135.863586 51.0 
135.955154 95.0 
135.971039 244.0 
136.047287 48583.0 
136.075134 787.0 
136.110641 1048.0 
136.148468 266.0 
136.17627 72.0 
136.205444 35.0 
136.233612 51.0 
136.248962 36.0 
136.269714 75.0 
136.616333 24.0 
136.704559 45.0 
136.811569 123.0 
136.85054 145.0 
136.876419 234.0 
136.940994 218.0 
136.965637 371.0 
136.996826 228.0 
137.01796 114.0 
137.059402 13174.0 
137.094803 340.0 
137.115005 373.0 
137.15773 320.0 
137.172211 347.0 
137.200577 197.0 
137.225647 213.0 
137.320343 94.0 
137.345123 105.0 
137.369614 247.0 
137.421936 108.0 
137.486526 206.0 
137.559021 44.0 
137.622604 178.0 
137.694611 201.0 
137.730911 150.0 
137.795776 163.0 
137.83638 135.0 
137.992569 120.0 
138.034592 324.0 
138.091187 100698.0 
138.125793 1101.0 
138.258545 202.0 
138.272736 206.0 
138.287231 182.0 
138.404205 33.0 
138.457153 76.0 
138.476852 183.0 
138.625488 33.0 
138.658569 48.0 
138.722061 78.0 
138.850464 39.0 
138.864716 40.0 
139.094116 10473.0 
139.182968 41.0 
139.339615 103.0 
139.566238 228.0 
139.833405 102.0 
139.94783 91.0 
139.999466 203.0 
140.042709 122.0 
140.075256 55.0 
140.10611 11005.0 
140.214081 114.0 
140.250427 138.0 
140.289673 72.0 
140.338242 31.0 
140.724884 82.0 
140.815353 31.0 
141.070358 1871.0 
141.108414 610.0 
142.076233 1147.0 
142.236069 40.0 
142.60759 127.0 
142.870102 53.0 
142.910278 90.0 
143.006699 45.0 
143.048248 810.0 
143.085861 736.0 
143.180557 153.0 
143.240753 29.0 
143.309875 119.0 
143.400162 94.0 
143.59375 71.0 
143.76152 64.0 
143.881134 40.0 
143.906998 123.0 
144.00592 59.0 
144.02919 163.0 
144.056198 4540.0 
144.088608 125.0 
145.064499 19693.0 
145.100922 10660.0 
145.173019 35.0 
145.269531 290.0 
145.469116 89.0 
145.630417 112.0 
145.983582 58.0 
146.014023 114.0 
146.035828 163.0 
146.068558 1497.0 
146.102921 1038.0 
147.04364 2684.0 
147.078918 2783.0 
147.130447 180.0 
147.178558 52.0 
147.493332 123.0 
148.027039 237.0 
148.052139 2058.0 
148.082062 424.0 
148.112747 808.0 
148.151505 49.0 
148.716049 24.0 
149.023697 7896.0 
149.059189 5018.0 
149.101593 89.0 
149.782684 280.0 
149.855881 126.0 
150.001419 66.0 
150.064026 1020.0 
150.090134 942.0 
150.124954 1319.0 
150.317398 149.0 
151.039398 2071.0 
151.075668 194.0 
151.098648 1591.0 
151.13356 190.0 
151.425873 121.0 
151.483063 203.0 
151.990891 294.0 
152.043533 369.0 
152.06189 651.0 
152.107101 10328.0 
152.139603 209.0 
152.443558 83.0 
152.567993 84.0 
152.916977 87.0 
153.067505 1661.0 
153.113174 1558.0 
153.540131 38.0 
153.886002 317.0 
154.075531 1617.0 
154.122238 1500.0 
154.434982 40.0 
155.060287 4637.0 
155.084503 8459.0 
155.155899 92.0 
155.752777 54.0 
156.063141 1064.0 
156.08815 643.0 
156.588257 85.0 
156.945831 23.0 
157.064911 24968.0 
157.101639 205.0 
157.214752 344.0 
157.334747 94.0 
157.378555 78.0 
157.504105 197.0 
157.64595 85.0 
157.724777 72.0 
157.86821 213.0 
157.907181 30.0 
158.069656 4870.0 
159.043869 932.0 
159.081238 6928.0 
159.118103 233.0 
159.380646 233.0 
160.021484 232.0 
160.051682 278.0 
160.081985 1405.0 
160.442535 46.0 
160.629044 77.0 
161.060013 8863.0 
161.095932 471.0 
161.116226 249.0 
161.391861 37.0 
161.977112 18.0 
162.067017 888.0 
162.096222 364.0 
162.127625 335.0 
163.073318 974.0 
164.014938 166.0 
164.083725 347.0 
164.10405 1123.0 
164.140137 209.0 
165.003159 26.0 
165.070206 1115.0 
165.114639 391.0 
165.519424 182.0 
166.083267 405.0 
166.122696 709.0 
166.15889 4406.0 
166.460663 108.0 
167.082947 646.0 
167.164215 186.0 
167.32048 156.0 
168.138641 1351.0 
168.298325 24.0 
168.741776 75.0 
169.040375 403.0 
169.069977 576.0 
169.101212 240.0 
170.025604 98.0 
170.075089 376.0 
171.07843 446.0 
171.70488 310.0 
172.005814 241.0 
172.054581 1439.0 
172.084656 183.0 
173.022491 164.0 
173.05722 823.0 
173.096039 12836.0 
173.271606 159.0 
173.459427 123.0 
173.543411 242.0 
174.068542 118.0 
174.099487 334.0 
175.040421 102.0 
175.075729 1393.0 
175.111755 991.0 
176.061523 218.0 
176.074493 191.0 
176.135376 29.0 
178.127548 319.0 
179.123474 113.0 
179.813492 145.0 
180.124603 169.0 
180.145523 138.0 
181.066589 456.0 
181.147888 74.0 
182.060425 193.0 
183.037186 287.0 
183.080276 4779.0 
183.553177 204.0 
183.84079 85.0 
184.082733 614.0 
184.722244 155.0 
185.038849 186.0 
185.060745 1496.0 
185.095078 1060.0 
185.198669 159.0 
185.229019 176.0 
186.064026 830.0 
186.097122 593.0 
186.980286 38.0 
187.075348 14774.0 
187.108047 238.0 
187.49147 100.0 
187.876831 250.0 
188.080353 1416.0 
188.122833 251.0 
188.269226 28.0 
189.090637 4117.0 
190.094864 507.0 
191.509995 235.0 
192.135651 177.0 
192.612396 292.0 
192.865189 112.0 
193.075409 228.0 
194.04628 239.0 
194.15358 5328.0 
194.251511 50.0 
194.769028 157.0 
195.165314 248.0 
197.060165 232.0 
197.077103 233.0 
198.067688 136.0 
200.079422 114.0 
200.34137 133.0 
201.089966 1571.0 
201.17952 126.0 
201.315048 334.0 
202.096146 163.0 
203.106079 7468.0 
203.159332 211.0 
204.111877 1007.0 
205.123718 528.0 
205.796463 273.0 
208.746353 299.0 
211.073959 189.0 
213.093414 2692.0 
213.166107 62.0 
215.108002 297.0 
218.892654 221.0 
225.735916 220.0 
229.086258 467.0 
229.15448 403.0 
230.166412 152.0 
231.099121 4036.0 
231.574112 194.0 
232.06839 214.0 
232.094864 201.0 
233.77626 66.0 
234.475464 176.0 
239.066269 142.0 
241.842438 321.0 
242.448547 233.0 
242.545624 122.0 
243.723694 58.0 
249.170471 88.0 
258.180969 146.0 
259.029144 139.0 
259.191254 130.0 
260.123077 183.0 
260.161102 94.0 
264.688843 224.0 
269.533569 168.0 
272.200256 171.0 
274.178955 88.0 
274.288574 333.0 
275.180817 234.0 
279.085114 38.0 
286.176758 565.0 
287.190613 117.0 
288.190369 638.0 
288.255432 199.0 
291.76532 251.0 
296.1091 184.0 
298.173187 214.0 
305.800201 222.0 
309.64325 35.0 
311.424896 257.0 
313.036072 101.0 
313.396027 97.0 
313.459137 61.0 
313.877655 161.0 
314.082764 121.0 
314.172394 144.0 
314.385895 95.0 
314.851562 66.0 
314.877075 57.0 
314.90509 62.0 
315.013733 225.0 
315.11142 125.0 
315.300812 231.0 
315.424408 126.0 
315.493713 174.0 
315.514862 142.0 
315.610413 240.0 
315.700928 115.0 
315.827667 122.0 
315.873993 187.0 
315.933441 256.0 
315.960388 178.0 
315.982239 179.0 
316.049438 634.0 
316.190521 376184.0 
316.25589 85.0 
316.427887 238.0 
316.489441 123.0 
316.531372 381.0 
316.562775 58.0 
316.603729 106.0 
316.651489 240.0 
316.687073 417.0 
316.728088 164.0 
316.757843 79.0 
316.798492 350.0 
316.843506 266.0 
316.887787 101.0 
316.937866 240.0 
316.985809 110.0 
317.054901 399.0 
317.084595 287.0 
317.194122 46932.0 
317.272705 154.0 
317.292511 148.0 
317.458649 124.0 
317.613495 53.0 
317.696686 100.0 
317.823395 37.0 
318.025421 199.0 
318.116669 19.0 
318.167236 158.0 
318.236176 66.0 
318.287476 47.0 
318.345245 38.0 
318.436768 129.0 
318.610291 239.0 
318.667145 77.0 
318.787445 68.0 
318.896851 72.0 
318.947479 164.0 
319.03891 149.0 
319.090485 322.0 
319.136078 93.0 
319.172455 103.0 
319.216736 107.0 
319.254791 77.0 
319.333679 330.0 
319.384399 149.0 
319.410187 84.0 
319.472839 148.0 
319.554688 91.0 
319.714172 77.0 
320.025269 82.0 
320.36676 108.0 
320.450378 80.0 
320.537598 80.0 
320.672516 24.0 
321.060333 88.0 
322.52002 26.0 
325.320465 55.0 
327.184296 18.0 
329.049927 77.0 
329.548889 34.0 
330.263824 86.0 
333.602203 27.0 
334.094543 111.0 
335.302765 93.0 
336.098389 19.0 
374.266571 102.0 
382.432037 62.0 
416.461578 97.0 
471.518829 134.0 
475.507599 194.0 
481.019684 63.0 
577.300415 188.0 
828.936523 89.0 
1065.129517 57.0 
1146.000122 298.0 
1159.65332 266.0 
1315.578735 295.0 
1326.509277 329.0 
1326.934082 78.0 
1357.085815 298.0 
1391.042358 213.0 
1428.024536 215.0 
1442.293945 331.0 
1461.443848 242.0 
1503.126709 92.0 
1519.938599 175.0 
1566.002808 261.0 
1585.520508 296.0 
1603.658569 87.0 
1633.190918 226.0 
1639.636719 192.0 
1661.107544 222.0 
1681.50415 230.0 
1687.704346 231.0 
1689.815918 281.0 
1695.002563 111.0 
1703.51062 227.0 
1709.504395 174.0 
1732.232422 246.0 
1736.752441 257.0 
1784.9021 182.0 
1786.821167 156.0 
1793.164062 247.0 
1809.647827 296.0 
1823.877197 340.0 
1830.730835 221.0 
1846.798218 84.0 
1879.959473 138.0 
1928.830322 166.0 
1931.001953 325.0 
1936.984985 135.0 
1949.631226 372.0 
1969.935669 258.0 
1996.905151 230.0 
END IONS

BEGIN IONS
TITLE=Scan Number: 516
PEPMASS=345.09698
CHARGE=1+
MSLEVEL=2
FILENAME=A2_RA2_01_2655.mzXML
INSTRUMENT=ion trap
SCANS=516
SMILES=COC1=CC(O)=C2C(=O)C(OC)=C(OC2=C1)C3=CC(OC)=C(O)C=C3
INCHIKEY=KQFUXLQBMQGNRT-UHFFFAOYSA-N
76.427544 241.0 
76.92849 201.0 
77.726387 93.0 
79.05294 182.0 
79.883804 244.0 
81.036499 228.0 
81.580635 263.0 
83.466141 315.0 
84.03862 255.0 
91.05307 855.0 
91.175018 224.0 
91.551338 362.0 
92.768715 207.0 
93.032005 255.0 
94.746521 213.0 
95.012093 362.0 
95.048325 283.0 
96.010719 192.0 
98.172722 239.0 
98.484161 221.0 
98.615082 111.0 
101.008934 170.0 
103.053841 168.0 
104.899658 147.0 
105.0299 224.0 
105.072327 149.0 
105.105812 219.0 
107.045601 246.0 
107.305435 209.0 
108.01696 135.0 
108.056053 447.0 
109.027733 1352.0 
110.874886 247.0 
111.345566 152.0 
113.799759 157.0 
114.112411 191.0 
115.031021 74.0 
115.055244 1030.0 
116.056297 624.0 
117.063049 184.0 
117.091118 253.0 
118.044525 129.0 
118.332184 200.0 
120.049896 147.0 
120.090248 221.0 
121.028572 1340.0 
122.035385 907.0 
123.010216 421.0 
123.04216 364.0 
124.050888 2627.0 
124.803925 339.0 
125.02951 613.0 
125.058418 159.0 
128.063904 523.0 
129.07547 540.0 
129.957703 208.0 
131.047012 495.0 
133.029297 879.0 
134.036087 361.0 
134.065155 273.0 
135.009125 208.0 
135.040939 870.0 
135.805252 136.0 
136.042908 207.0 
136.43428 186.0 
137.026031 712.0 
137.062149 95.0 
137.275131 159.0 
138.026779 474.0 
138.952805 228.0 
139.046158 357.0 
140.402908 238.0 
141.012787 194.0 
141.059006 162.0 
141.073944 192.0 
142.058884 173.0 
143.050613 499.0 
143.180893 92.0 
144.06279 615.0 
144.462097 143.0 
145.027969 152.0 
145.056671 249.0 
145.368332 107.0 
146.040161 698.0 
146.538788 154.0 
147.079315 880.0 
147.973801 178.0 
148.051865 334.0 
148.407272 268.0 
148.77359 298.0 
149.024216 714.0 
149.061935 124.0 
149.081329 227.0 
150.02977 1111.0 
150.969421 212.0 
151.039688 6808.0 
151.980194 94.0 
152.044037 1142.0 
152.242722 160.0 
152.977768 277.0 
153.022141 179.0 
153.069611 170.0 
153.246201 247.0 
155.031876 468.0 
155.056534 438.0 
156.059143 485.0 
156.353424 135.0 
156.396927 113.0 
157.058578 165.0 
158.658234 264.0 
158.913834 122.0 
159.0392 282.0 
159.076874 155.0 
159.354507 113.0 
160.052765 1331.0 
160.421829 158.0 
161.021606 2541.0 
161.059341 2194.0 
162.027985 446.0 
162.064774 216.0 
162.223663 96.0 
163.037598 550.0 
163.077759 126.0 
163.30748 148.0 
164.045731 178.0 
165.015625 106.0 
165.057709 211.0 
166.025772 1328.0 
167.033798 6646.0 
167.83873 144.0 
168.038864 603.0 
168.105453 208.0 
169.064407 566.0 
169.100723 173.0 
169.194351 194.0 
170.03688 730.0 
171.044525 3409.0 
172.052277 125.0 
173.023056 272.0 
173.056351 257.0 
173.374985 150.0 
173.709885 95.0 
173.78537 79.0 
174.068512 273.0 
174.214066 305.0 
175.074921 4190.0 
175.439835 110.0 
175.979156 87.0 
176.076065 302.0 
178.055984 153.0 
178.440872 260.0 
179.032013 754.0 
180.035522 231.0 
180.823761 127.0 
181.05072 242.0 
182.335236 132.0 
183.041199 225.0 
183.205704 97.0 
183.629135 193.0 
184.050629 644.0 
184.360153 308.0 
184.656921 121.0 
185.062241 1419.0 
186.060043 311.0 
187.042709 536.0 
187.077148 1350.0 
187.730789 121.0 
188.04512 4903.0 
188.29248 161.0 
189.013107 191.0 
189.052933 521.0 
190.055817 279.0 
191.03064 166.0 
191.071091 556.0 
192.044647 102.0 
193.015411 536.0 
193.049103 874.0 
195.03717 106.0 
196.053925 137.0 
198.057938 345.0 
199.006683 349.0 
199.038239 2303.0 
200.023941 190.0 
200.045578 1226.0 
201.048798 617.0 
202.73027 240.0 
202.897018 144.0 
203.069305 14472.0 
203.290421 72.0 
203.692657 90.0 
204.074097 2103.0 
204.354172 92.0 
205.050232 160.0 
205.081024 159.0 
205.690964 248.0 
206.049164 249.0 
208.032639 316.0 
209.297989 332.0 
210.751923 140.0 
211.03186 177.0 
211.076675 216.0 
212.98233 185.0 
213.055466 1433.0 
213.664795 65.0 
213.847946 150.0 
213.999268 113.0 
214.059906 345.0 
214.927734 140.0 
215.039642 274.0 
215.068054 377.0 
215.411163 113.0 
215.979263 188.0 
216.04097 16143.0 
216.220581 127.0 
216.249908 181.0 
216.363724 151.0 
217.049118 5589.0 
218.059143 436.0 
219.204407 143.0 
220.041031 128.0 
220.06752 139.0 
221.045273 98.0 
222.376617 329.0 
223.04895 220.0 
224.737961 255.0 
225.030518 150.0 
225.056396 227.0 
226.02478 506.0 
226.057861 142.0 
227.031464 1106.0 
227.062469 158.0 
228.047684 540.0 
229.045532 203.0 
230.065842 527.0 
230.130447 282.0 
230.301804 93.0 
230.449005 95.0 
230.483093 220.0 
230.864548 162.0 
231.006927 1185.0 
231.064346 76885.0 
231.296417 106.0 
231.331024 124.0 
231.420914 131.0 
232.068085 10740.0 
233.028931 206.0 
233.074402 271.0 
233.908508 306.0 
234.601501 76.0 
234.681641 182.0 
235.069794 140.0 
235.652512 123.0 
239.035568 320.0 
239.073212 131.0 
240.053986 141.0 
240.848038 99.0 
240.956802 307.0 
241.049591 3115.0 
241.898346 135.0 
242.057861 1633.0 
243.066391 2481.0 
243.177658 163.0 
243.952744 401.0 
244.035187 7419.0 
244.75827 159.0 
245.041016 5154.0 
245.984039 270.0 
246.046432 768.0 
247.059509 188.0 
248.246429 206.0 
249.033646 151.0 
252.039917 140.0 
253.047638 146.0 
253.072174 176.0 
254.017883 318.0 
254.054947 77.0 
255.023758 432.0 
255.061844 353.0 
255.754349 196.0 
256.071289 927.0 
256.383698 256.0 
257.043457 400.0 
257.077393 931.0 
258.051575 1042.0 
258.363708 77.0 
258.547882 262.0 
258.58902 151.0 
258.907959 103.0 
258.97464 130.0 
259.059296 103804.0 
259.108215 266.0 
259.140137 126.0 
259.195251 185.0 
259.226135 253.0 
259.485748 100.0 
259.511322 205.0 
259.708618 91.0 
259.750153 143.0 
259.999146 121.0 
260.062164 17249.0 
260.191528 199.0 
260.227539 90.0 
260.886871 87.0 
261.067627 712.0 
261.118225 136.0 
261.751892 175.0 
261.907898 163.0 
261.988922 104.0 
262.090881 108.0 
262.925903 96.0 
264.189453 194.0 
265.046539 177.0 
266.803558 263.0 
267.062927 95.0 
267.252838 150.0 
267.812012 268.0 
268.034271 186.0 
268.53418 318.0 
268.775269 307.0 
269.048248 1334.0 
269.336304 90.0 
270.000854 116.0 
270.042572 338.0 
270.565338 224.0 
270.87735 175.0 
271.028198 629.0 
271.060669 1969.0 
271.095123 398.0 
271.987518 366.0 
272.031525 7056.0 
272.080048 546.0 
273.035645 1766.0 
273.078766 323.0 
273.80304 222.0 
274.036041 260.0 
274.075989 176.0 
275.08963 199.0 
279.003998 190.0 
281.912872 104.0 
281.952179 137.0 
283.057037 654.0 
284.066162 848.0 
284.80838 205.0 
285.037476 488.0 
285.075043 1434.0 
285.67157 188.0 
285.956909 87.0 
286.044739 1767.0 
286.2453 132.0 
286.376282 179.0 
286.746887 105.0 
286.78006 123.0 
286.849213 123.0 
286.892914 247.0 
286.934326 397.0 
287.054779 106760.0 
287.12265 73.0 
287.367188 124.0 
287.522522 214.0 
287.596344 144.0 
287.666168 129.0 
287.831512 123.0 
287.926147 177.0 
288.001923 186.0 
288.057922 14117.0 
288.533508 129.0 
288.660553 89.0 
288.736908 100.0 
289.061249 270.0 
289.109894 289.0 
289.566559 116.0 
289.651764 131.0 
290.106934 320.0 
290.171326 142.0 
291.128143 136.0 
293.214294 249.0 
294.047241 221.0 
295.01239 267.0 
296.758636 80.0 
297.005157 193.0 
297.044312 1257.0 
297.872803 319.0 
298.045105 1045.0 
299.019318 380.0 
299.060913 1631.0 
299.098175 341.0 
299.990906 558.0 
300.023865 3338.0 
300.061523 793.0 
300.621307 264.0 
301.067749 5265.0 
301.146851 165.0 
302.081268 5871.0 
302.854858 117.0 
303.042755 154.0 
303.082489 187.0 
303.976837 131.0 
305.291718 130.0 
306.260681 97.0 
306.949921 202.0 
309.867035 140.0 
310.61554 122.0 
311.05188 309.0 
311.165955 173.0 
312.065674 469.0 
313.023285 395.0 
313.072235 2464.0 
313.626801 137.0 
313.900391 177.0 
313.955658 252.0 
314.040771 5788.0 
314.101654 251.0 
314.304382 143.0 
314.340271 196.0 
314.55365 241.0 
314.855072 101.0 
314.930542 494.0 
314.965057 618.0 
315.049927 161580.0 
315.102875 668.0 
315.137726 349.0 
315.343719 272.0 
315.411163 213.0 
315.495148 81.0 
315.743073 167.0 
315.808472 201.0 
315.861725 87.0 
315.91037 299.0 
315.960968 167.0 
316.053284 22157.0 
316.162842 223.0 
316.330963 212.0 
316.76712 161.0 
317.007874 156.0 
317.057312 798.0 
317.111115 113.0 
317.571442 143.0 
317.734375 126.0 
317.924744 187.0 
317.97049 134.0 
318.063995 423.0 
318.437866 113.0 
318.909027 182.0 
319.055908 84.0 
321.063507 172.0 
322.381592 231.0 
324.312683 220.0 
325.748535 110.0 
327.047089 82.0 
327.813354 164.0 
328.071655 155.0 
328.182953 230.0 
328.484192 200.0 
328.612976 170.0 
328.680664 97.0 
328.770599 228.0 
328.936798 160.0 
328.986572 385.0 
329.065155 13494.0 
329.211029 94.0 
329.908508 368.0 
330.072876 202313.0 
330.158844 336.0 
330.325439 197.0 
330.403748 191.0 
330.514374 170.0 
330.669434 98.0 
330.787964 176.0 
330.876312 132.0 
330.975037 345.0 
331.076202 22964.0 
331.369324 100.0 
331.640961 87.0 
332.087891 897.0 
332.441925 77.0 
332.701202 114.0 
332.828339 87.0 
332.88736 125.0 
332.988159 186.0 
333.088348 96.0 
333.206543 235.0 
333.295746 220.0 
333.3992 143.0 
333.597168 96.0 
333.740387 114.0 
334.244446 155.0 
334.430176 123.0 
339.903107 338.0 
341.184692 255.0 
343.011505 102.0 
343.054626 110.0 
343.105072 171.0 
343.171417 246.0 
343.265503 96.0 
343.461426 285.0 
343.534149 92.0 
343.816986 133.0 
343.930511 115.0 
343.996918 240.0 
344.212891 202.0 
344.314575 79.0 
344.374329 118.0 
344.565094 131.0 
344.71579 175.0 
344.953705 180.0 
345.096222 288241.0 
345.159027 385.0 
345.231873 242.0 
345.316162 237.0 
345.462769 198.0 
345.538513 149.0 
345.593231 406.0 
345.692596 114.0 
345.792969 76.0 
345.83371 183.0 
345.976715 92.0 
346.099701 31361.0 
346.238892 142.0 
346.387421 127.0 
346.513275 88.0 
346.886536 205.0 
346.959076 82.0 
347.102875 398.0 
347.35614 73.0 
348.013123 230.0 
348.152954 109.0 
348.225189 147.0 
348.338898 132.0 
348.412628 197.0 
348.477478 198.0 
348.51001 129.0 
348.613373 135.0 
354.705841 66.0 
358.222748 73.0 
359.996216 110.0 
363.976135 102.0 
364.47757 93.0 
365.133972 86.0 
371.789917 88.0 
377.259003 76.0 
379.677032 83.0 
418.995392 92.0 
492.522461 128.0 
512.754028 131.0 
972.164978 126.0 
1789.694092 256.0 
END IONS

BEGIN IONS
TITLE=Scan Number: 520
PEPMASS=343.15302
CHARGE=1+
MSLEVEL=2
FILENAME=A12_BA12_01_2844.mzXML
INSTRUMENT=ion trap
SCANS=520
SMILES=COC1=C(O)C=CC(=C1)C2OC(C3=CC(OC)=C(O)C=C3)C(C)(O)C2C
INCHIKEY=DGYASNDHNSXGSL-UHFFFAOYSA-N
75.735443 184.0 
76.432411 250.0 
91.053062 732.0 
92.058517 259.0 
93.032158 260.0 
94.022575 199.0 
103.057289 449.0 
110.034439 149.0 
111.04361 234.0 
115.057716 517.0 
116.062851 1021.0 
117.037224 172.0 
117.069321 616.0 
119.046448 504.0 
119.378525 158.0 
122.034065 443.0 
123.033737 154.0 
125.057549 417.0 
129.069229 398.0 
130.075363 153.0 
131.047989 344.0 
131.085526 8739.0 
132.057922 254.0 
132.087967 417.0 
133.064682 336.0 
134.06691 313.0 
135.077911 100.0 
136.05545 264.0 
137.059036 3204.0 
138.059433 133.0 
139.061905 127.0 
143.050476 131.0 
144.056808 516.0 
145.065125 2246.0 
147.043655 3568.0 
148.046631 139.0 
148.433243 246.0 
149.451126 120.0 
151.040039 805.0 
151.075272 1469.0 
152.078369 170.0 
154.06015 149.0 
158.072617 1098.0 
159.080215 11938.0 
160.047852 132.0 
160.085434 778.0 
161.059464 1636.0 
162.068314 1709.0 
164.043716 153.0 
164.66777 96.0 
167.00441 202.0 
167.068192 476.0 
169.067825 249.0 
170.036911 262.0 
171.045868 107.0 
171.669373 287.0 
175.07756 694.0 
176.081146 1301.0 
176.149292 98.0 
176.953934 140.0 
177.091522 1382.0 
178.094696 534.0 
178.479263 103.0 
179.069794 1007.0 
180.072525 126.0 
186.953659 214.0 
187.07486 578.0 
188.084045 356.0 
188.465317 134.0 
188.659485 94.0 
189.055328 1383.0 
190.057587 108.0 
190.816284 126.0 
191.076767 151.0 
191.107025 9371.0 
191.462616 100.0 
192.109055 841.0 
192.172256 100.0 
193.23941 216.0 
193.566772 98.0 
196.056931 142.0 
197.064117 285.0 
198.689423 112.0 
201.045166 232.0 
202.100647 137.0 
204.077225 4886.0 
204.964706 193.0 
205.078644 400.0 
205.101715 479.0 
206.086395 105.0 
207.049149 185.0 
207.087357 288.0 
209.050797 202.0 
210.071152 165.0 
211.077637 294.0 
212.041794 158.0 
213.056259 491.0 
214.052002 157.0 
215.087479 167.0 
216.074799 182.0 
218.070633 330.0 
218.540497 139.0 
219.102036 5457.0 
219.549561 95.0 
220.101974 107.0 
221.055054 139.0 
221.089706 177.0 
222.103241 164.0 
225.054504 389.0 
227.071411 540.0 
228.064056 154.0 
228.817657 98.0 
231.078232 172.0 
233.097046 176.0 
234.066818 384.0 
234.104492 702.0 
235.077377 1399.0 
236.08284 461.0 
239.107529 546.0 
240.055603 151.0 
240.084244 375.0 
241.04245 205.0 
241.084503 369.0 
245.0793 235.0 
248.086792 176.0 
249.061234 217.0 
250.100082 976.0 
251.099594 219.0 
251.133896 229.0 
252.075882 393.0 
253.080673 234.0 
254.062408 158.0 
255.059631 510.0 
255.113754 139.0 
256.070923 623.0 
256.294556 163.0 
256.587067 123.0 
257.077698 191.0 
260.087769 204.0 
261.097961 113.0 
262.053589 164.0 
263.069611 285.0 
265.09082 568.0 
267.103363 1506.0 
268.103943 112.0 
270.087677 1050.0 
271.094849 911.0 
272.100861 446.0 
273.120056 152.0 
275.110077 110.0 
278.090179 846.0 
279.078796 355.0 
279.111298 410.0 
280.074188 82.0 
281.082489 405.0 
284.104462 1108.0 
285.105072 101.0 
292.079865 145.0 
293.121582 1273.0 
294.128723 838.0 
295.083252 214.0 
305.595673 143.0 
310.122284 1001.0 
311.093567 163.0 
311.121765 189.0 
325.143494 1816.0 
343.158356 335.0 
1622.609985 148.0 
1859.655029 139.0 
END IONS

BEGIN IONS
TITLE=Scan Number: 521
PEPMASS=640.41602
CHARGE=1+
MSLEVEL=2
FILENAME=A12_BA12_01_2844.mzXML
INSTRUMENT=ion trap
SCANS=521
SMILES=CC(C)[C@H]1OC(=O)[C@H](C(C)C)N(C)C(=O)[C@H](OC(=O)[C@H](C(C)C)N(C)C(=O)[C@H](OC(=O)[C@H](C(C)C)N(C)C1=O)C(C)C)C(C)C
INCHIKEY=MIZMDSVSLSIMSC-VYLWARHZSA-N
70.009933 254.0 
70.064018 2615.0 
70.105164 148.0 
70.348801 154.0 
70.45314 453.0 
70.480476 263.0 
70.676773 267.0 
70.726166 111.0 
70.853806 226.0 
71.040939 104.0 
71.073074 4238.0 
71.269562 278.0 
71.398788 136.0 
71.429024 164.0 
71.461723 229.0 
71.512344 188.0 
71.612183 331.0 
71.676292 121.0 
71.706261 192.0 
71.778862 531.0 
71.977776 206.0 
71.997711 269.0 
72.080696 3819.0 
72.165939 259.0 
72.316315 270.0 
72.355309 222.0 
72.468437 241.0 
72.552582 257.0 
72.613571 116.0 
72.724365 152.0 
72.900192 82.0 
72.994377 449.0 
73.026421 130.0 
73.064453 12852.0 
73.179848 199.0 
73.248322 124.0 
73.40921 176.0 
73.524895 402.0 
73.615349 145.0 
73.771019 214.0 
74.067558 251.0 
74.139252 150.0 
74.177177 210.0 
74.264725 276.0 
74.342819 134.0 
74.393715 251.0 
74.503441 197.0 
74.670708 186.0 
74.714394 187.0 
74.799843 277.0 
74.920425 123.0 
75.09343 259.0 
75.20562 289.0 
75.340523 245.0 
75.370766 178.0 
75.42305 137.0 
75.517029 121.0 
75.553322 294.0 
75.580528 197.0 
75.617813 239.0 
75.840561 211.0 
75.909004 236.0 
76.065063 338.0 
76.119133 223.0 
76.197601 244.0 
76.381752 173.0 
76.522598 142.0 
76.664009 225.0 
76.732162 265.0 
76.972969 228.0 
77.052704 223.0 
77.111084 190.0 
77.181931 308.0 
77.374352 199.0 
77.494019 446.0 
77.562195 186.0 
77.592697 187.0 
77.652016 422.0 
77.688599 225.0 
77.719421 244.0 
77.815048 265.0 
77.941566 104.0 
78.065643 214.0 
78.096443 261.0 
78.17485 168.0 
78.187057 217.0 
78.24691 342.0 
78.360786 508.0 
78.397263 159.0 
78.480354 740.0 
78.506828 269.0 
79.05529 452.0 
79.301949 321.0 
79.334068 303.0 
79.436516 319.0 
79.484039 237.0 
79.874985 305.0 
80.256943 142.0 
80.321442 321.0 
80.358727 306.0 
80.41848 242.0 
80.532272 222.0 
80.572304 145.0 
80.61824 467.0 
80.644958 324.0 
80.762466 364.0 
80.780869 168.0 
80.794861 154.0 
80.837189 134.0 
80.94825 303.0 
81.069557 409.0 
81.111809 188.0 
81.218872 283.0 
81.41993 155.0 
81.618347 313.0 
82.065971 153.0 
82.125702 233.0 
82.187737 288.0 
82.305618 460.0 
82.357666 168.0 
82.452599 111.0 
82.704132 196.0 
82.756302 246.0 
82.898132 249.0 
82.993073 134.0 
83.048508 14135.0 
83.085876 439.0 
83.149414 196.0 
83.183723 192.0 
83.263336 378.0 
83.334633 220.0 
83.421127 503.0 
83.458176 196.0 
83.595512 130.0 
83.796875 73.0 
83.883087 152.0 
83.918335 340.0 
84.080124 34198.0 
84.142082 268.0 
84.16433 446.0 
84.263412 437.0 
84.306236 186.0 
84.3675 213.0 
84.497231 180.0 
84.539078 222.0 
84.583115 222.0 
84.672165 81.0 
84.691666 74.0 
84.753868 296.0 
84.792725 185.0 
84.815681 148.0 
84.899231 178.0 
84.943504 110.0 
84.960815 298.0 
85.055595 165.0 
85.085098 3344.0 
85.116295 136.0 
85.132866 176.0 
85.154366 147.0 
85.196747 221.0 
85.226753 150.0 
85.24276 150.0 
85.259445 323.0 
85.293999 185.0 
85.307518 278.0 
85.323143 305.0 
85.349396 276.0 
85.373978 346.0 
85.409424 136.0 
85.431618 75.0 
85.460487 467.0 
85.507851 160.0 
85.537582 481.0 
85.582977 253.0 
85.623955 380.0 
85.652954 167.0 
85.695381 142.0 
85.737427 371.0 
85.770508 372.0 
85.806404 635.0 
85.877335 393.0 
85.923653 383.0 
85.934631 497.0 
85.978241 1443.0 
86.016258 1050.0 
86.095886 1921879.0 
86.14209 412.0 
86.158791 923.0 
86.187317 330.0 
86.212456 783.0 
86.252678 532.0 
86.263702 599.0 
86.319313 680.0 
86.35743 404.0 
86.391571 552.0 
86.431412 574.0 
86.496994 388.0 
86.527687 461.0 
86.563332 360.0 
86.60199 423.0 
86.625587 165.0 
86.638077 228.0 
86.66291 149.0 
86.684875 244.0 
86.704338 225.0 
86.720963 298.0 
86.744736 297.0 
86.784355 151.0 
86.805634 220.0 
86.831581 203.0 
86.857224 691.0 
86.892021 260.0 
86.931831 355.0 
86.971886 209.0 
87.001373 231.0 
87.013123 266.0 
87.038704 164.0 
87.098984 94618.0 
87.137543 472.0 
87.158791 326.0 
87.240196 370.0 
87.262421 398.0 
87.291183 224.0 
87.3349 163.0 
87.358482 200.0 
87.396873 313.0 
87.421631 144.0 
87.438087 212.0 
87.451035 238.0 
87.468239 508.0 
87.493942 367.0 
87.516068 199.0 
87.553581 273.0 
87.582367 213.0 
87.600075 857.0 
87.637024 408.0 
87.720512 442.0 
87.760475 389.0 
87.77932 160.0 
87.795303 228.0 
87.829781 465.0 
87.866821 201.0 
87.900658 291.0 
87.921684 181.0 
87.949158 384.0 
87.986877 299.0 
88.028473 105.0 
88.057755 193.0 
88.099892 1178.0 
88.13002 302.0 
88.150017 91.0 
88.187271 187.0 
88.259918 91.0 
88.400574 184.0 
88.428764 143.0 
88.465881 255.0 
88.487892 339.0 
88.525963 153.0 
88.585815 253.0 
88.642494 198.0 
88.667816 187.0 
88.717194 194.0 
88.757561 156.0 
88.776848 159.0 
88.82296 305.0 
88.860016 208.0 
88.975517 247.0 
89.032013 216.0 
89.081696 111.0 
89.185928 124.0 
89.231216 103.0 
89.298996 203.0 
89.347755 471.0 
89.378876 117.0 
89.401894 365.0 
89.564743 330.0 
89.611496 102.0 
89.668724 239.0 
89.710716 106.0 
89.781593 109.0 
89.833366 158.0 
89.84948 240.0 
89.866478 288.0 
89.944862 90.0 
90.281708 73.0 
90.299515 141.0 
90.40847 95.0 
90.702446 142.0 
90.718575 277.0 
90.823959 215.0 
90.891449 327.0 
90.938637 123.0 
91.035942 141.0 
91.078796 378.0 
91.095772 172.0 
91.220573 248.0 
91.506554 322.0 
91.585075 226.0 
91.748924 266.0 
91.773743 199.0 
92.09388 224.0 
92.142212 367.0 
92.502563 91.0 
92.538033 322.0 
92.774834 206.0 
92.825912 221.0 
92.893196 298.0 
92.952354 85.0 
93.050179 309.0 
93.068535 574.0 
93.125252 238.0 
93.198364 117.0 
93.365097 129.0 
93.38385 137.0 
93.462738 91.0 
93.545258 180.0 
93.562614 168.0 
93.695984 306.0 
94.069183 619.0 
94.238541 130.0 
94.362946 173.0 
94.410881 102.0 
94.800217 232.0 
95.047058 83.0 
95.086311 1357.0 
95.198372 213.0 
95.236404 184.0 
95.292343 158.0 
95.341331 246.0 
95.432259 113.0 
95.598663 120.0 
95.75943 159.0 
95.770454 197.0 
95.969788 96.0 
95.996414 219.0 
96.079628 967.0 
96.159378 224.0 
96.287178 291.0 
96.31353 145.0 
96.33107 296.0 
96.59182 250.0 
96.733208 264.0 
96.969727 216.0 
96.989716 353.0 
97.064423 270.0 
97.089256 209.0 
97.191765 268.0 
97.303307 346.0 
97.420792 121.0 
97.57312 123.0 
97.71315 316.0 
97.734184 184.0 
97.804314 246.0 
97.875328 260.0 
98.014183 81.0 
98.095047 640.0 
98.197273 105.0 
98.636955 219.0 
98.664238 163.0 
98.680984 250.0 
98.83522 332.0 
98.892418 162.0 
99.080383 296.0 
99.254173 300.0 
99.656624 232.0 
99.968307 161.0 
99.990562 147.0 
100.046532 250.0 
100.112373 18716.0 
100.15786 131.0 
100.216972 170.0 
100.373192 284.0 
100.615028 125.0 
100.8591 102.0 
101.059753 14536.0 
101.115639 1280.0 
101.144417 329.0 
101.763428 100.0 
101.881531 275.0 
101.921631 116.0 
101.9795 329.0 
102.058762 693.0 
102.077812 372.0 
102.191521 255.0 
102.227066 184.0 
102.35434 145.0 
102.561089 98.0 
102.611069 296.0 
102.766357 97.0 
102.904915 310.0 
103.01355 302.0 
103.065186 245.0 
103.348991 112.0 
103.615692 94.0 
103.901154 122.0 
104.356232 177.0 
104.539429 152.0 
104.773056 205.0 
104.792343 248.0 
104.862373 218.0 
104.894363 265.0 
105.101807 400.0 
105.217278 109.0 
105.419456 197.0 
105.598083 246.0 
105.733597 161.0 
106.066566 181.0 
106.280952 148.0 
106.537102 145.0 
106.612938 254.0 
106.631683 223.0 
106.789551 204.0 
106.836128 201.0 
106.949959 124.0 
107.004051 242.0 
107.133408 179.0 
107.78923 250.0 
107.897453 202.0 
108.080956 6965.0 
108.140793 157.0 
108.171143 222.0 
108.613632 141.0 
108.632431 250.0 
108.678284 175.0 
108.70652 299.0 
108.776596 296.0 
108.826195 260.0 
108.869896 305.0 
108.930527 168.0 
109.004997 231.0 
109.024117 242.0 
109.089767 7229.0 
109.128853 154.0 
109.288376 121.0 
109.84539 150.0 
110.031113 277.0 
110.060127 306.0 
110.096718 4955.0 
110.544647 343.0 
110.668816 278.0 
110.827774 89.0 
110.899071 306.0 
111.024086 269.0 
111.043488 163.0 
111.08741 120.0 
111.117081 8132.0 
111.205551 275.0 
111.339378 87.0 
111.378952 175.0 
111.591904 322.0 
111.629288 184.0 
111.750412 122.0 
111.912605 244.0 
112.014854 181.0 
112.075577 16671.0 
112.118713 438.0 
112.177391 316.0 
112.335045 171.0 
112.426247 141.0 
112.522537 104.0 
112.594322 108.0 
112.715942 207.0 
112.809494 374.0 
113.08004 1193.0 
113.146111 337.0 
113.168724 116.0 
113.274406 133.0 
113.291084 181.0 
113.729218 260.0 
113.968628 300.0 
114.091652 8331.0 
114.186241 213.0 
114.219788 250.0 
114.404358 239.0 
114.555191 218.0 
114.867081 142.0 
115.096634 834.0 
115.404602 296.0 
115.459686 189.0 
115.619576 400.0 
115.73951 321.0 
115.847954 122.0 
116.290085 172.0 
116.414299 243.0 
116.532349 158.0 
116.665802 151.0 
116.788582 228.0 
116.897415 177.0 
117.029495 90.0 
117.198235 296.0 
117.274658 239.0 
117.519073 135.0 
117.749146 178.0 
117.775536 323.0 
118.060867 186.0 
118.085297 466.0 
118.222603 237.0 
118.301056 215.0 
118.477539 346.0 
118.57756 131.0 
118.803062 84.0 
118.825897 317.0 
119.017319 165.0 
119.086571 93.0 
119.239471 148.0 
119.558548 193.0 
119.610825 171.0 
119.70266 165.0 
119.827415 168.0 
120.08075 182.0 
120.141861 308.0 
120.261971 245.0 
120.395576 563.0 
121.006821 327.0 
121.099297 910.0 
121.208496 467.0 
121.40361 193.0 
121.452637 204.0 
121.472107 259.0 
121.657661 184.0 
121.784698 228.0 
121.807564 251.0 
121.847336 117.0 
121.918495 310.0 
121.95932 153.0 
122.083282 312.0 
122.100159 673.0 
122.261513 289.0 
122.454773 90.0 
122.472572 158.0 
122.63903 237.0 
122.873505 166.0 
123.111038 454.0 
123.265663 271.0 
123.59008 95.0 
123.84301 115.0 
124.04203 137.0 
124.124214 123.0 
124.274544 208.0 
124.465721 254.0 
124.740738 247.0 
125.083107 832.0 
125.104004 213.0 
125.153862 276.0 
125.314529 331.0 
125.638329 386.0 
126.090523 1341.0 
126.112877 268.0 
126.127831 392.0 
126.163651 189.0 
126.402275 327.0 
126.540878 185.0 
126.575645 141.0 
126.769356 243.0 
126.907501 103.0 
126.93721 141.0 
127.095413 250.0 
127.115715 897.0 
127.36367 126.0 
127.51696 111.0 
127.583817 380.0 
127.733437 224.0 
127.995819 93.0 
128.039078 318.0 
128.073715 129.0 
128.109055 815.0 
128.445526 310.0 
128.66185 322.0 
128.955093 279.0 
128.991318 285.0 
129.054932 3330.0 
129.091705 159.0 
129.128052 428.0 
129.226898 260.0 
129.456741 158.0 
129.596832 285.0 
130.05986 408.0 
130.085922 13025.0 
130.299988 283.0 
130.422699 173.0 
130.810547 259.0 
130.908554 143.0 
131.086212 653.0 
131.12381 208.0 
131.141449 217.0 
131.212067 200.0 
131.334503 401.0 
131.426025 225.0 
131.474945 156.0 
131.551361 302.0 
131.783875 187.0 
131.983856 198.0 
132.043579 573.0 
132.101807 23701.0 
132.396347 232.0 
132.56459 198.0 
132.6091 198.0 
132.710434 102.0 
132.771957 292.0 
132.983444 209.0 
133.030563 186.0 
133.105499 1639.0 
133.203064 244.0 
133.253891 238.0 
133.483749 167.0 
133.744934 112.0 
133.781189 247.0 
133.849213 180.0 
134.097015 437.0 
134.139648 166.0 
134.352066 213.0 
134.413254 311.0 
134.71756 189.0 
134.846848 256.0 
135.012527 187.0 
135.103027 333.0 
135.406921 225.0 
135.623657 228.0 
135.667068 227.0 
135.79921 187.0 
135.841095 131.0 
135.945404 159.0 
136.073212 145.0 
136.111404 618.0 
136.16243 268.0 
136.232452 177.0 
136.277145 102.0 
136.416779 134.0 
136.878571 225.0 
136.934357 223.0 
137.035126 215.0 
137.057022 166.0 
137.096222 4364.0 
137.332458 472.0 
137.476059 234.0 
137.511322 181.0 
137.598068 203.0 
137.628769 250.0 
137.687408 248.0 
138.066864 166.0 
138.09111 1618.0 
138.120422 199.0 
138.225128 283.0 
138.245758 235.0 
138.448227 314.0 
138.520462 146.0 
138.546402 255.0 
138.68634 415.0 
138.866653 157.0 
138.897263 217.0 
139.027542 298.0 
139.05777 645.0 
139.110458 4137.0 
139.702805 207.0 
139.777039 135.0 
139.8815 281.0 
140.070312 2866.0 
140.10965 525.0 
140.143799 1409.0 
140.183701 107.0 
140.348099 174.0 
140.414368 237.0 
140.434586 151.0 
140.542038 285.0 
140.903534 90.0 
140.941864 229.0 
141.069244 112.0 
141.098648 373.0 
141.145065 209.0 
141.189911 103.0 
141.255051 215.0 
141.40567 112.0 
141.459564 173.0 
141.524368 230.0 
141.760406 113.0 
141.952164 203.0 
142.085007 2509.0 
142.227142 94.0 
142.322678 90.0 
142.579834 267.0 
142.691452 265.0 
142.714935 154.0 
142.76387 324.0 
142.983902 219.0 
143.12146 180.0 
143.22023 98.0 
143.328644 160.0 
143.383438 301.0 
143.44725 402.0 
143.57692 220.0 
143.69754 101.0 
143.738342 191.0 
143.792999 140.0 
143.872467 256.0 
144.036469 228.0 
144.109726 291.0 
144.225723 164.0 
144.332687 237.0 
144.446869 222.0 
144.520905 267.0 
144.72139 316.0 
144.80336 332.0 
144.968002 430.0 
145.066345 255.0 
145.092484 420.0 
145.121902 22708.0 
145.307343 270.0 
145.345123 429.0 
145.422791 302.0 
145.452301 137.0 
145.656998 97.0 
146.012878 213.0 
146.044586 187.0 
146.12262 1419.0 
146.199295 270.0 
146.364044 199.0 
146.424164 240.0 
146.675842 367.0 
147.104721 292.0 
147.12941 369.0 
147.259552 326.0 
147.333221 115.0 
147.370911 190.0 
147.52446 111.0 
147.80249 306.0 
147.858002 303.0 
148.389191 387.0 
148.496918 228.0 
148.587326 231.0 
148.623016 240.0 
148.721786 244.0 
149.221695 315.0 
149.427368 252.0 
150.128128 2576.0 
150.489273 569.0 
150.664139 228.0 
150.764908 330.0 
150.892471 181.0 
150.954208 224.0 
151.04187 319.0 
151.130814 445.0 
151.203339 131.0 
151.581589 247.0 
151.874741 136.0 
152.01741 137.0 
152.048203 211.0 
152.143875 17591.0 
152.386322 158.0 
152.617462 139.0 
152.689285 237.0 
152.781448 278.0 
152.940521 228.0 
153.080063 156.0 
153.120392 368.0 
153.146301 2505.0 
153.341858 262.0 
153.706802 351.0 
153.761887 405.0 
153.866547 249.0 
154.086075 1997.0 
154.122406 2729.0 
154.200287 247.0 
154.256271 328.0 
154.404343 259.0 
154.451599 254.0 
154.502502 126.0 
154.603729 342.0 
154.68631 199.0 
155.106003 1013.0 
155.156982 209.0 
155.33342 244.0 
155.417007 325.0 
155.523117 254.0 
155.562393 230.0 
155.763687 269.0 
155.84436 275.0 
155.916 133.0 
156.067352 756.0 
156.098297 303.0 
156.136124 184.0 
156.651367 231.0 
156.890503 123.0 
157.070374 355.0 
157.201416 164.0 
157.421982 161.0 
157.808594 326.0 
157.852432 260.0 
157.958023 220.0 
158.025101 117.0 
158.079956 182.0 
158.117401 360.0 
158.153244 7447.0 
158.354813 185.0 
158.597794 133.0 
158.655685 235.0 
158.839798 217.0 
158.860779 240.0 
159.039764 145.0 
159.119308 252.0 
159.158432 425.0 
159.238281 264.0 
159.279495 156.0 
159.454956 242.0 
159.554596 207.0 
159.891113 304.0 
159.945511 256.0 
159.976532 244.0 
160.060974 269.0 
160.243637 377.0 
160.294968 241.0 
160.471039 163.0 
160.510361 230.0 
160.674362 251.0 
160.894699 385.0 
161.160614 242.0 
161.232849 135.0 
161.682465 141.0 
161.864044 278.0 
162.074615 253.0 
162.10704 335.0 
162.174927 95.0 
162.194244 127.0 
162.838913 106.0 
163.019348 103.0 
163.124115 282.0 
163.178345 345.0 
163.299515 232.0 
163.812241 315.0 
163.98642 244.0 
164.355972 345.0 
164.58139 174.0 
164.818817 98.0 
164.91008 244.0 
165.089447 353.0 
165.495041 258.0 
165.640915 172.0 
165.869553 187.0 
165.887344 299.0 
166.032974 231.0 
166.086411 51777.0 
166.289078 152.0 
166.427704 281.0 
166.600433 199.0 
166.718018 204.0 
167.090271 4186.0 
167.25029 206.0 
167.297501 118.0 
167.355713 358.0 
167.473831 126.0 
167.560333 227.0 
167.662704 200.0 
167.883865 250.0 
167.979843 128.0 
168.03334 230.0 
168.138336 160144.0 
168.265167 214.0 
168.29364 76.0 
168.315643 389.0 
168.37825 211.0 
168.433472 144.0 
168.473618 243.0 
168.512222 276.0 
168.578522 190.0 
168.634521 350.0 
168.975311 146.0 
169.141617 13419.0 
169.184433 160.0 
169.43071 148.0 
169.529282 103.0 
169.636169 168.0 
169.737137 92.0 
169.844879 124.0 
169.895523 186.0 
170.022263 104.0 
170.053604 290.0 
170.12439 196.0 
170.148666 650.0 
170.218292 140.0 
170.456451 119.0 
170.502869 260.0 
170.559677 175.0 
170.597214 319.0 
170.785828 213.0 
170.872101 119.0 
171.017776 252.0 
171.349716 209.0 
171.443085 334.0 
171.512222 170.0 
171.639435 243.0 
171.821899 258.0 
171.963074 297.0 
171.988998 152.0 
172.132492 10101.0 
172.2146 260.0 
172.284363 200.0 
172.32991 275.0 
172.362961 206.0 
172.8172 639.0 
172.938843 249.0 
173.089188 160.0 
173.136765 874.0 
173.325638 143.0 
174.01265 105.0 
174.110092 135.0 
174.216721 160.0 
174.284348 160.0 
174.356659 267.0 
174.424561 370.0 
174.528625 103.0 
174.579163 572.0 
174.72966 106.0 
174.879242 330.0 
174.910004 258.0 
175.114227 464.0 
175.250015 257.0 
175.420975 293.0 
175.567734 258.0 
176.398346 246.0 
176.461044 193.0 
176.605103 189.0 
176.646683 209.0 
176.752121 295.0 
176.819824 123.0 
176.937759 191.0 
176.997192 226.0 
177.142288 184.0 
177.316925 197.0 
177.593048 275.0 
177.886383 267.0 
177.926544 405.0 
177.960464 95.0 
177.997253 338.0 
178.060486 223.0 
178.103729 118.0 
178.124725 643.0 
178.454025 151.0 
178.517685 387.0 
178.608337 438.0 
178.683899 239.0 
178.790131 139.0 
178.865463 265.0 
178.976044 359.0 
179.102997 229.0 
179.128586 199.0 
179.151215 198.0 
179.254242 165.0 
179.4767 185.0 
179.64682 345.0 
179.757339 126.0 
179.915207 230.0 
180.049133 158.0 
180.099045 422.0 
180.187073 268.0 
180.211075 223.0 
180.25325 300.0 
180.289078 248.0 
180.38887 223.0 
180.441696 160.0 
180.512802 283.0 
180.678772 181.0 
180.975586 155.0 
181.110092 62066.0 
181.252594 321.0 
181.32753 303.0 
181.382034 259.0 
181.542984 211.0 
181.607315 268.0 
181.650558 260.0 
182.116577 12800.0 
182.149384 853.0 
182.221313 204.0 
182.268616 354.0 
182.363586 180.0 
182.499222 232.0 
182.536865 348.0 
182.616211 148.0 
182.75267 443.0 
182.78302 191.0 
182.809311 263.0 
182.882721 100.0 
182.970276 299.0 
183.013962 167.0 
183.055374 220.0 
183.114532 1865.0 
183.179184 813.0 
183.337875 256.0 
183.442368 206.0 
183.524109 475.0 
183.59845 138.0 
183.654709 166.0 
184.134888 839.0 
184.161133 265.0 
184.194214 88.0 
184.232224 284.0 
184.587311 104.0 
184.688293 456.0 
184.718719 409.0 
184.948837 122.0 
185.078644 97.0 
185.127731 128.0 
185.150146 297.0 
185.190765 120.0 
185.335587 208.0 
185.355072 288.0 
185.391602 367.0 
185.443176 217.0 
185.469162 422.0 
185.506058 393.0 
185.547485 122.0 
185.617615 608.0 
185.662384 234.0 
185.702545 578.0 
185.736725 910.0 
185.788025 317.0 
185.852631 467.0 
185.908875 1197.0 
185.954254 805.0 
185.981247 1000.0 
186.017441 576.0 
186.044601 896.0 
186.148865 1577883.0 
186.205444 432.0 
186.223206 497.0 
186.252228 734.0 
186.297516 670.0 
186.333511 759.0 
186.393814 957.0 
186.460678 1374.0 
186.494171 725.0 
186.530914 377.0 
186.597275 735.0 
186.698105 465.0 
186.760086 271.0 
186.828812 504.0 
186.86441 206.0 
186.899017 345.0 
186.982056 404.0 
187.037888 572.0 
187.152023 152883.0 
187.214798 185.0 
187.251205 190.0 
187.34642 75.0 
187.414398 545.0 
187.452637 97.0 
187.473648 197.0 
187.513504 183.0 
187.571762 350.0 
187.651169 117.0 
187.719452 410.0 
188.015335 136.0 
188.11058 247.0 
188.155197 7006.0 
188.260147 333.0 
188.311127 170.0 
188.332825 168.0 
188.372482 277.0 
188.415405 215.0 
188.46759 276.0 
188.500809 1112.0 
188.535355 350.0 
188.557907 347.0 
188.624466 477.0 
188.648514 496.0 
188.690155 365.0 
188.722809 341.0 
188.761917 441.0 
188.800217 141.0 
188.875137 134.0 
188.933121 109.0 
188.968506 131.0 
189.167145 229.0 
189.294617 347.0 
189.431259 107.0 
189.524109 124.0 
189.587692 113.0 
189.625656 317.0 
189.703918 148.0 
189.794601 268.0 
189.952988 127.0 
189.987137 282.0 
190.05983 408.0 
190.437149 161.0 
190.5737 441.0 
190.720932 99.0 
190.744217 297.0 
190.797348 144.0 
191.043015 191.0 
191.103592 157.0 
191.194397 355.0 
191.284668 298.0 
191.37764 229.0 
191.511581 447.0 
191.55307 140.0 
191.970596 190.0 
192.060379 283.0 
192.100235 325.0 
192.428345 129.0 
192.460892 318.0 
192.491501 308.0 
192.545624 171.0 
192.718491 134.0 
192.813568 278.0 
192.880768 147.0 
192.935165 171.0 
193.107346 171.0 
193.334625 144.0 
193.519821 170.0 
193.618393 172.0 
193.749405 133.0 
193.80571 94.0 
193.926544 433.0 
193.990417 257.0 
194.149811 339.0 
194.291107 263.0 
194.394226 120.0 
194.445679 389.0 
194.46933 297.0 
194.548203 202.0 
194.610519 284.0 
194.655518 123.0 
194.683868 421.0 
194.70932 253.0 
194.795456 103.0 
194.816315 167.0 
194.888489 127.0 
194.930283 188.0 
194.94606 258.0 
194.996719 459.0 
195.083298 324.0 
195.119888 1031.0 
195.157562 503.0 
195.208023 412.0 
195.226913 681.0 
195.266388 578.0 
195.293945 763.0 
195.360947 1114.0 
195.415924 406.0 
195.445297 523.0 
195.48349 555.0 
195.515152 839.0 
195.580734 753.0 
195.61795 876.0 
195.672302 692.0 
195.701645 921.0 
195.731812 821.0 
195.755692 1111.0 
195.812393 586.0 
195.840714 1151.0 
195.870468 1167.0 
195.892319 996.0 
195.928101 1307.0 
195.957779 1348.0 
195.999802 1641.0 
196.033875 1952.0 
196.133484 3870485.0 
196.20015 1075.0 
196.257874 968.0 
196.287827 1041.0 
196.314987 1213.0 
196.336365 1310.0 
196.363129 1600.0 
196.464539 1342.0 
196.494781 1201.0 
196.522934 1014.0 
196.593353 1194.0 
196.629608 648.0 
196.722015 608.0 
196.76799 560.0 
196.839157 582.0 
196.870285 909.0 
196.886581 972.0 
196.924133 498.0 
196.938812 512.0 
196.996063 639.0 
197.13681 333576.0 
197.194626 631.0 
197.233749 870.0 
197.306564 526.0 
197.345062 326.0 
197.381561 238.0 
197.468811 431.0 
197.535233 307.0 
197.568542 218.0 
197.672272 264.0 
197.722778 647.0 
197.93428 117.0 
197.958069 189.0 
198.00943 112.0 
198.045853 144.0 
198.087814 804.0 
198.138443 16631.0 
198.208908 436.0 
198.277512 244.0 
198.300049 338.0 
198.334152 1015.0 
198.393066 1024.0 
198.43277 491.0 
198.468719 393.0 
198.493988 526.0 
198.512878 652.0 
198.5383 555.0 
198.566666 740.0 
198.592926 1080.0 
198.625565 1207.0 
198.691223 1390.0 
198.721512 1445.0 
198.745804 1490.0 
198.774216 1515.0 
198.806854 644.0 
198.835632 276.0 
198.934952 252.0 
198.95755 393.0 
199.007751 179.0 
199.105484 238.0 
199.303787 112.0 
199.37413 148.0 
199.400879 159.0 
199.518707 175.0 
199.554321 231.0 
199.597351 102.0 
199.633911 232.0 
199.673035 407.0 
199.747849 323.0 
199.804306 134.0 
199.989532 146.0 
200.077423 222.0 
200.128265 6536.0 
200.165634 7431.0 
200.278275 126.0 
200.409103 128.0 
200.4599 178.0 
200.543243 110.0 
200.641098 159.0 
200.82959 183.0 
200.890488 209.0 
201.075745 260.0 
201.113281 12730.0 
201.163956 279.0 
201.914154 106.0 
201.952988 88.0 
202.115814 994.0 
202.163116 231.0 
202.305374 168.0 
202.662628 147.0 
202.767395 187.0 
202.829849 368.0 
202.886124 168.0 
202.926254 110.0 
203.425629 188.0 
203.890945 156.0 
204.087646 188.0 
204.445923 130.0 
204.480911 132.0 
204.522858 503.0 
204.857651 99.0 
204.985367 180.0 
205.082397 99.0 
205.113815 251.0 
205.210724 174.0 
205.298996 432.0 
205.513367 211.0 
205.624603 189.0 
205.819977 109.0 
206.018524 129.0 
206.108612 146.0 
206.235901 123.0 
206.589172 85.0 
206.624664 218.0 
207.032898 169.0 
207.121063 289.0 
207.27977 179.0 
207.821304 107.0 
207.885406 168.0 
207.951187 258.0 
208.262558 179.0 
208.627823 204.0 
209.020157 205.0 
209.156601 139.0 
209.221298 415.0 
209.397324 92.0 
209.474899 426.0 
209.505524 90.0 
209.640625 189.0 
209.989182 370.0 
210.074646 406.0 
210.110931 224.0 
210.149872 15348.0 
210.260925 137.0 
210.284271 183.0 
210.330688 129.0 
210.376297 182.0 
210.528397 169.0 
210.55954 170.0 
210.745819 311.0 
210.78978 242.0 
210.84024 299.0 
210.885498 153.0 
210.975937 148.0 
211.023697 313.0 
211.152176 1536.0 
211.217148 245.0 
211.328735 75.0 
211.564926 348.0 
211.714188 182.0 
211.814957 240.0 
212.09317 91.0 
212.128906 1619.0 
212.199753 215.0 
212.353821 338.0 
212.472168 195.0 
212.57074 409.0 
212.608475 148.0 
212.652725 242.0 
212.689484 354.0 
212.739944 221.0 
212.763824 318.0 
212.852448 227.0 
212.89769 662.0 
212.977386 458.0 
213.012848 252.0 
213.053329 269.0 
213.096497 298.0 
213.126862 356.0 
213.182938 384.0 
213.209656 354.0 
213.275131 690.0 
213.307037 306.0 
213.368134 950.0 
213.394348 299.0 
213.430023 469.0 
213.476913 293.0 
213.523621 307.0 
213.567825 827.0 
213.637131 328.0 
213.675034 384.0 
213.703171 763.0 
213.731781 654.0 
213.771286 958.0 
213.832993 562.0 
213.867462 926.0 
213.93721 711.0 
213.98613 1543.0 
214.019287 2238.0 
214.144104 3088969.0 
214.226044 867.0 
214.286697 513.0 
214.330719 1163.0 
214.369629 725.0 
214.395508 995.0 
214.441055 1092.0 
214.49614 827.0 
214.525757 500.0 
214.574585 1241.0 
214.645706 591.0 
214.67128 526.0 
214.728882 498.0 
214.750977 514.0 
214.779129 649.0 
214.799652 630.0 
214.839783 635.0 
214.89061 885.0 
214.965439 455.0 
215.020538 573.0 
215.058884 573.0 
215.147369 275982.0 
215.249039 308.0 
215.328461 483.0 
215.391251 685.0 
215.426529 285.0 
215.477234 234.0 
215.496689 266.0 
215.5298 278.0 
215.581329 316.0 
215.622635 171.0 
215.666061 622.0 
215.732971 433.0 
215.884644 176.0 
215.978653 228.0 
216.010086 95.0 
216.041763 303.0 
216.14859 16974.0 
216.236923 176.0 
216.29155 229.0 
216.319489 185.0 
216.3647 202.0 
216.398834 184.0 
216.438889 288.0 
216.529434 171.0 
216.569016 713.0 
216.645126 896.0 
216.682861 344.0 
216.710632 660.0 
216.74675 787.0 
216.792404 1024.0 
216.82283 1079.0 
216.852295 1573.0 
216.888138 716.0 
216.930832 1025.0 
217.03981 246.0 
217.075317 296.0 
217.108536 144.0 
217.144241 89.0 
217.363083 129.0 
217.656967 146.0 
217.789795 156.0 
217.836639 284.0 
218.00209 136.0 
218.067612 318.0 
218.254059 91.0 
219.142822 398.0 
219.420929 110.0 
220.103287 217.0 
221.011917 116.0 
221.038071 155.0 
221.372559 161.0 
221.869476 94.0 
222.130203 149.0 
222.805313 192.0 
223.022797 83.0 
223.102585 98.0 
223.231415 139.0 
223.284958 126.0 
223.435608 113.0 
223.491302 138.0 
223.533569 227.0 
224.094193 361.0 
224.273407 132.0 
224.478928 221.0 
224.609039 100.0 
224.657166 237.0 
224.827194 129.0 
225.256348 195.0 
225.293381 243.0 
225.478683 162.0 
225.697525 184.0 
225.750809 159.0 
225.872726 173.0 
226.233322 250.0 
226.481979 118.0 
226.858765 204.0 
227.051346 96.0 
227.276855 140.0 
227.692871 118.0 
228.159744 15209.0 
228.451126 212.0 
228.670715 161.0 
228.750031 292.0 
228.836014 107.0 
228.920898 86.0 
229.043701 131.0 
229.106705 1754.0 
229.164246 2433.0 
229.246368 146.0 
229.393707 129.0 
229.517548 144.0 
229.582199 108.0 
229.707199 100.0 
229.734283 167.0 
230.075439 107.0 
230.13884 375.0 
230.249268 98.0 
230.598175 176.0 
230.779984 133.0 
230.845078 143.0 
231.1353 298.0 
231.308319 206.0 
232.154495 22669.0 
232.223099 144.0 
232.805817 181.0 
233.120407 104.0 
233.159042 2241.0 
233.632278 258.0 
233.969604 84.0 
234.163269 273.0 
234.406937 163.0 
234.695847 217.0 
235.731461 163.0 
236.01358 186.0 
236.425186 211.0 
237.080536 231.0 
237.463364 208.0 
237.536987 233.0 
238.028046 258.0 
238.098343 109.0 
238.756424 149.0 
238.862579 178.0 
239.164337 127.0 
239.22229 81.0 
239.597702 116.0 
240.047577 102.0 
240.199463 625.0 
241.051987 119.0 
241.493103 87.0 
241.814896 224.0 
242.139771 1976.0 
242.178665 177.0 
242.299438 103.0 
242.522263 245.0 
242.970444 220.0 
243.03244 158.0 
243.134308 144.0 
243.49173 162.0 
245.184082 192.0 
246.175125 317.0 
246.305954 114.0 
246.351791 80.0 
246.764236 211.0 
247.245026 177.0 
247.389175 236.0 
248.139252 128.0 
248.204788 149.0 
248.832901 197.0 
248.971756 104.0 
250.05719 317.0 
250.24498 246.0 
250.484726 129.0 
250.686569 342.0 
250.834015 243.0 
251.02179 132.0 
251.095947 202.0 
251.164795 167.0 
252.286087 141.0 
252.432617 235.0 
253.436859 127.0 
253.745407 82.0 
254.139633 224.0 
254.2397 201.0 
254.391556 126.0 
255.535583 318.0 
255.670532 203.0 
256.018585 243.0 
256.172211 131.0 
256.476227 100.0 
256.816376 131.0 
256.978699 261.0 
257.281403 167.0 
257.561584 135.0 
257.947113 190.0 
258.074219 226.0 
259.028992 270.0 
259.222198 192.0 
259.350983 141.0 
259.780792 270.0 
259.920776 170.0 
259.969757 120.0 
260.008118 221.0 
260.117096 237.0 
260.622223 146.0 
261.108917 213.0 
262.006714 189.0 
262.433807 255.0 
262.623932 119.0 
262.773071 187.0 
262.907104 158.0 
263.461792 94.0 
263.881683 184.0 
263.962708 250.0 
264.132385 123.0 
265.874268 201.0 
266.034485 306.0 
266.174164 378.0 
266.210876 279.0 
266.288605 176.0 
267.020447 131.0 
267.442505 101.0 
267.700531 171.0 
267.902924 280.0 
268.049438 227.0 
268.090393 209.0 
268.190735 8663.0 
269.192444 804.0 
269.548279 91.0 
269.758789 389.0 
269.861633 208.0 
270.377533 339.0 
270.501434 115.0 
270.527405 188.0 
271.027435 74.0 
271.316956 151.0 
272.212219 265.0 
272.465454 184.0 
272.869171 377.0 
273.096008 274.0 
273.265808 169.0 
273.429077 189.0 
273.640442 102.0 
274.030029 132.0 
274.082275 109.0 
274.15625 132.0 
274.28299 113.0 
274.801056 101.0 
274.868683 211.0 
274.935272 84.0 
275.294006 181.0 
275.649353 135.0 
275.880157 216.0 
276.099609 189.0 
276.215607 142.0 
276.540955 224.0 
276.693695 359.0 
277.091614 175.0 
277.15155 296.0 
277.383392 324.0 
277.496765 576.0 
277.594757 196.0 
277.812805 81.0 
278.961609 241.0 
279.099518 221.0 
279.40863 195.0 
279.449249 103.0 
279.970856 86.0 
280.230713 248.0 
280.287048 143.0 
280.506409 216.0 
280.966034 223.0 
281.222656 542.0 
282.703094 232.0 
282.81601 141.0 
283.744141 97.0 
284.162567 212.0 
284.329285 127.0 
284.373474 286.0 
285.108673 330.0 
285.304749 363.0 
285.375702 175.0 
285.753876 280.0 
286.170135 1190.0 
286.202515 5104.0 
286.52243 168.0 
286.674591 114.0 
286.860077 278.0 
287.171722 213.0 
287.523651 114.0 
288.149261 182.0 
288.805328 182.0 
289.281158 154.0 
291.818665 301.0 
292.086884 251.0 
293.195587 351.0 
293.277252 282.0 
293.631958 102.0 
293.718781 117.0 
294.148895 88.0 
294.284424 174.0 
295.207642 251.0 
295.245361 168.0 
295.760498 283.0 
296.187469 21205.0 
296.745453 279.0 
297.056244 230.0 
297.189117 2049.0 
297.37616 113.0 
297.652435 228.0 
297.737854 254.0 
298.200867 257.0 
298.415619 386.0 
298.622772 140.0 
298.930542 94.0 
299.234161 27557.0 
299.417114 200.0 
299.446869 247.0 
300.027039 112.0 
300.072632 308.0 
300.180145 3430.0 
300.239319 3381.0 
300.643555 174.0 
301.06958 135.0 
301.167999 6761.0 
301.23999 387.0 
301.296936 288.0 
301.467346 177.0 
301.60788 342.0 
302.125 199.0 
302.167572 547.0 
302.468292 126.0 
302.641205 171.0 
303.174713 83.0 
303.24646 241.0 
303.765411 137.0 
304.681793 151.0 
304.895325 125.0 
305.106171 209.0 
305.668671 247.0 
306.013031 185.0 
306.339905 278.0 
306.699829 131.0 
306.882416 112.0 
307.036987 124.0 
307.239899 265.0 
307.539734 150.0 
307.960815 296.0 
308.244659 180.0 
310.198395 242.0 
310.247223 271.0 
310.483673 176.0 
310.629059 117.0 
310.686584 106.0 
311.082825 89.0 
311.377502 279.0 
311.432678 213.0 
311.600616 103.0 
311.63089 110.0 
311.7117 250.0 
311.742767 146.0 
311.779388 277.0 
311.920349 120.0 
311.996674 201.0 
312.134705 210.0 
312.316864 204.0 
312.376678 151.0 
312.456451 226.0 
312.594574 173.0 
312.658569 339.0 
312.767548 273.0 
312.922302 422.0 
313.008514 545.0 
313.064331 497.0 
313.098633 382.0 
313.1474 504.0 
313.230591 634.0 
313.283783 236.0 
313.337433 158.0 
313.367462 264.0 
313.396454 463.0 
313.464752 367.0 
313.53009 181.0 
313.577515 935.0 
313.66391 539.0 
313.71228 354.0 
313.741516 597.0 
313.785431 517.0 
313.816498 547.0 
313.862427 188.0 
313.920532 656.0 
313.951538 972.0 
313.994415 522.0 
314.040527 1682.0 
314.19696 1236295.0 
314.276794 829.0 
314.400299 447.0 
314.42572 572.0 
314.477509 950.0 
314.55304 715.0 
314.634277 428.0 
314.697876 685.0 
314.775726 474.0 
314.820618 519.0 
314.855316 381.0 
314.933472 529.0 
315.011993 550.0 
315.089081 897.0 
315.20047 164610.0 
315.268982 401.0 
315.320587 468.0 
315.371613 226.0 
315.394257 308.0 
315.442017 245.0 
315.468231 304.0 
315.529846 137.0 
315.568878 102.0 
315.595276 175.0 
315.669678 131.0 
315.706085 88.0 
315.746155 272.0 
315.809052 177.0 
315.874634 112.0 
316.005737 430.0 
316.052948 206.0 
316.08786 210.0 
316.128571 221.0 
316.202332 16687.0 
316.267853 241.0 
316.356262 165.0 
316.659576 99.0 
316.706726 232.0 
316.751831 258.0 
316.800171 162.0 
316.870422 355.0 
316.909698 122.0 
316.996155 119.0 
317.027222 119.0 
317.059906 165.0 
317.148376 241.0 
317.173981 333.0 
317.201355 458.0 
317.251129 380.0 
317.286041 251.0 
317.318268 489.0 
317.391724 520.0 
317.436554 537.0 
317.486298 906.0 
317.604584 481.0 
317.740509 336.0 
317.969818 271.0 
318.268402 96.0 
318.454407 82.0 
318.507294 108.0 
318.538849 266.0 
318.609802 116.0 
318.959259 216.0 
319.074158 195.0 
319.137207 156.0 
319.633789 108.0 
321.16748 136.0 
321.396637 277.0 
321.937653 134.0 
322.265656 121.0 
322.565857 205.0 
323.461548 147.0 
323.934692 102.0 
325.211212 625.0 
325.659149 126.0 
326.216309 132.0 
326.491058 128.0 
326.798401 174.0 
326.880646 122.0 
327.107483 252.0 
327.22876 56422.0 
327.327057 137.0 
327.874359 130.0 
328.024353 280.0 
328.129578 137.0 
328.23056 10644.0 
328.537598 77.0 
328.709503 218.0 
329.135345 92.0 
329.225433 1127.0 
329.496796 125.0 
329.927307 112.0 
330.199371 226.0 
330.302094 137.0 
330.88269 111.0 
331.032532 187.0 
331.108673 214.0 
331.956451 201.0 
332.155396 193.0 
332.207916 2683.0 
332.328156 154.0 
332.47464 96.0 
332.601105 124.0 
333.211578 262.0 
334.317413 124.0 
336.173889 208.0 
336.415131 129.0 
336.685608 100.0 
336.773956 156.0 
338.85965 195.0 
338.973602 264.0 
339.254303 212.0 
341.270416 112.0 
342.436798 150.0 
343.494324 211.0 
343.638885 132.0 
343.865692 107.0 
344.108124 108.0 
344.235687 248.0 
344.322906 128.0 
344.749878 285.0 
344.929779 144.0 
345.240448 32864.0 
345.389008 105.0 
345.454803 201.0 
345.545715 237.0 
345.721344 102.0 
345.828583 124.0 
345.969299 176.0 
346.241852 4061.0 
346.359344 119.0 
346.396515 156.0 
346.687103 127.0 
346.957581 158.0 
347.20108 195.0 
347.243195 373.0 
348.147186 85.0 
348.751038 126.0 
348.803528 223.0 
348.833221 163.0 
348.977142 126.0 
349.840118 186.0 
350.285889 389.0 
350.6492 189.0 
350.885223 169.0 
354.28067 128.0 
354.483398 85.0 
355.141052 92.0 
355.363129 110.0 
355.918213 100.0 
356.121643 296.0 
356.226654 380.0 
357.1409 307.0 
357.345001 273.0 
357.677002 176.0 
357.800903 236.0 
359.254852 702.0 
359.841461 186.0 
360.088715 216.0 
360.535645 181.0 
360.83847 238.0 
361.135803 148.0 
361.37088 158.0 
361.495514 90.0 
361.5802 188.0 
361.994324 226.0 
362.609497 214.0 
363.507568 132.0 
363.789398 144.0 
364.751587 102.0 
365.219788 142.0 
365.514923 206.0 
366.112183 129.0 
367.56958 105.0 
368.239899 224.0 
368.418732 292.0 
369.059784 340.0 
369.185852 335.0 
369.256592 286.0 
369.911163 307.0 
370.044556 197.0 
370.314789 256.0 
370.630798 117.0 
370.763672 213.0 
371.232941 286.0 
372.093842 225.0 
372.988251 183.0 
373.946411 97.0 
374.167542 202.0 
375.765137 204.0 
375.998871 185.0 
376.295746 171.0 
376.669067 226.0 
377.605957 215.0 
377.848663 244.0 
379.294861 207.0 
380.978363 269.0 
381.265137 124.0 
382.506439 250.0 
383.006287 208.0 
383.554688 245.0 
383.729187 238.0 
384.704742 345.0 
384.786865 138.0 
384.956421 213.0 
385.078644 231.0 
385.26889 636.0 
385.9599 140.0 
386.014984 229.0 
386.255524 4558.0 
386.80954 88.0 
386.884674 280.0 
387.141144 127.0 
387.257355 1028.0 
387.574921 190.0 
389.136322 239.0 
389.607239 170.0 
390.41925 210.0 
390.813385 197.0 
391.13147 143.0 
391.194855 178.0 
391.416534 150.0 
392.244781 235.0 
392.273407 229.0 
392.712311 150.0 
393.304535 290.0 
393.388885 249.0 
393.592529 376.0 
393.666565 73.0 
393.911469 170.0 
394.144592 287.0 
395.256165 194.0 
395.299683 186.0 
395.510498 252.0 
396.237701 255.0 
396.510468 293.0 
396.724792 278.0 
397.189819 124.0 
397.24472 496.0 
398.251648 362.0 
398.526611 97.0 
398.804901 167.0 
398.870239 154.0 
399.119476 156.0 
399.155518 253.0 
399.28775 35887.0 
399.924744 386.0 
400.230591 834.0 
400.28775 5544.0 
400.336914 180.0 
400.562653 301.0 
401.052063 176.0 
401.215485 134.0 
401.293762 206.0 
401.433136 281.0 
401.930908 133.0 
402.057343 87.0 
402.214203 220.0 
402.550476 134.0 
402.959961 176.0 
403.091858 376.0 
403.237274 111.0 
404.268311 149.0 
405.874695 143.0 
407.303345 165.0 
408.03418 130.0 
408.292358 182.0 
408.938873 474.0 
409.171875 298.0 
409.270111 9896.0 
409.439148 158.0 
409.494537 289.0 
410.066071 250.0 
410.223785 190.0 
410.275696 1840.0 
410.476074 163.0 
410.750275 149.0 
410.817017 188.0 
410.914734 101.0 
411.004059 111.0 
411.422424 240.0 
411.508911 88.0 
412.173248 173.0 
412.251587 198.0 
412.373108 319.0 
412.596161 124.0 
412.751221 128.0 
412.861877 98.0 
412.910339 116.0 
413.012543 231.0 
413.20993 306.0 
413.262909 2682.0 
413.576782 123.0 
413.841583 365.0 
413.963715 330.0 
414.025848 118.0 
414.0625 310.0 
414.143005 671.0 
414.250092 106024.0 
414.374359 246.0 
414.440216 152.0 
414.505432 89.0 
414.779602 116.0 
414.826263 427.0 
414.875092 394.0 
415.181763 528.0 
415.25351 20421.0 
415.427826 199.0 
415.731018 166.0 
415.765839 171.0 
416.105072 152.0 
416.169983 128.0 
416.259003 1170.0 
416.30899 238.0 
416.388092 397.0 
416.437103 256.0 
417.064758 142.0 
417.251892 258.0 
417.302246 222.0 
417.642517 185.0 
417.839508 301.0 
418.084198 159.0 
418.230011 259.0 
418.784332 142.0 
419.267242 171.0 
419.334473 100.0 
420.071472 266.0 
420.405945 204.0 
420.739471 198.0 
420.937592 163.0 
421.52951 193.0 
422.129028 167.0 
422.253235 437.0 
422.443359 210.0 
422.477966 150.0 
423.024017 158.0 
423.28302 108.0 
423.407532 80.0 
423.503815 206.0 
423.843018 251.0 
423.905792 106.0 
423.963226 98.0 
424.052124 283.0 
424.295166 145.0 
424.49884 146.0 
424.892609 339.0 
425.027222 113.0 
425.259796 168.0 
425.45639 199.0 
425.614227 352.0 
426.070129 133.0 
426.107269 299.0 
426.164154 244.0 
426.249146 144.0 
426.345276 98.0 
426.446014 355.0 
426.516846 256.0 
426.564514 130.0 
426.63623 288.0 
426.675598 338.0 
426.78891 278.0 
426.915375 514.0 
426.966309 605.0 
427.092133 1308.0 
427.137756 1552.0 
427.281769 667836.0 
427.498169 134.0 
427.524689 203.0 
427.563324 917.0 
427.643738 241.0 
427.691833 286.0 
427.736206 345.0 
427.803192 569.0 
427.868317 435.0 
427.922119 663.0 
428.014374 398.0 
428.080048 248.0 
428.285217 126400.0 
428.389862 137.0 
428.472626 282.0 
428.621185 173.0 
428.67218 125.0 
428.707642 139.0 
428.757538 395.0 
428.849976 202.0 
429.009735 236.0 
429.066162 100.0 
429.09671 183.0 
429.144012 187.0 
429.287872 6706.0 
429.389618 105.0 
429.522797 108.0 
430.006256 156.0 
430.241028 278.0 
430.550812 107.0 
430.595825 312.0 
430.659851 209.0 
430.697723 199.0 
430.757294 272.0 
430.865814 345.0 
430.9151 225.0 
431.01004 214.0 
431.101257 282.0 
431.234741 537.0 
431.277771 384.0 
431.646973 107.0 
432.127319 163.0 
432.252655 214.0 
432.434143 119.0 
432.676575 93.0 
433.266235 121.0 
433.792145 172.0 
434.05191 128.0 
435.638275 121.0 
436.816528 217.0 
438.282745 145.0 
438.503967 270.0 
438.661224 231.0 
438.730499 152.0 
438.968628 412.0 
440.029602 350.0 
440.388489 193.0 
441.237183 119.0 
441.305664 1102.0 
441.604553 100.0 
442.108124 256.0 
442.157623 117.0 
442.281342 129.0 
442.309631 180.0 
442.518555 116.0 
442.655365 160.0 
442.718842 260.0 
443.077423 141.0 
443.283386 90.0 
443.503906 88.0 
443.717316 153.0 
443.895325 158.0 
443.940094 246.0 
444.431091 127.0 
444.469269 269.0 
444.5271 118.0 
444.624298 357.0 
444.843933 139.0 
444.900391 153.0 
445.108887 377.0 
445.292145 70825.0 
445.576965 102.0 
445.741821 72.0 
445.890808 251.0 
445.975861 115.0 
446.153503 114.0 
446.195312 294.0 
446.297028 14106.0 
446.912109 136.0 
447.250702 107.0 
447.294464 877.0 
448.426056 111.0 
448.587952 190.0 
449.182831 121.0 
449.567841 96.0 
449.786133 118.0 
451.095306 128.0 
451.422272 112.0 
453.238312 187.0 
453.344604 119.0 
453.905273 151.0 
454.348328 173.0 
455.221741 178.0 
455.259674 164.0 
455.379456 86.0 
455.631348 115.0 
456.326294 121.0 
457.284454 168.0 
458.316925 203.0 
459.311554 121.0 
460.184387 128.0 
460.915375 171.0 
462.164978 131.0 
462.909424 254.0 
463.099976 200.0 
463.644043 126.0 
464.486511 296.0 
465.007721 117.0 
467.313049 240.0 
467.368347 263.0 
468.581024 155.0 
468.772034 214.0 
469.142242 140.0 
470.082184 191.0 
470.320679 257.0 
471.110107 144.0 
471.213348 204.0 
471.269562 147.0 
471.303375 327.0 
471.590302 239.0 
472.524933 216.0 
473.172729 180.0 
473.324097 143.0 
474.624146 307.0 
474.699799 179.0 
474.788971 149.0 
474.996155 166.0 
478.71463 114.0 
478.811401 242.0 
479.667694 237.0 
479.784363 191.0 
481.330017 419.0 
481.561462 405.0 
482.257324 226.0 
482.378723 110.0 
482.550812 234.0 
482.65448 147.0 
483.012421 200.0 
483.381378 289.0 
483.985779 116.0 
484.146698 166.0 
484.190582 123.0 
484.289459 267.0 
484.360901 201.0 
484.767883 317.0 
485.196594 208.0 
485.319153 201.0 
487.309662 187.0 
488.199188 151.0 
488.555573 320.0 
489.300354 200.0 
489.734283 157.0 
489.908905 145.0 
491.342163 204.0 
492.492706 136.0 
492.893829 91.0 
492.984863 81.0 
493.685394 443.0 
493.82486 208.0 
494.043823 101.0 
494.171234 267.0 
494.763 229.0 
495.128143 191.0 
495.305359 264.0 
495.403778 398.0 
496.897552 121.0 
497.406952 212.0 
498.113129 234.0 
498.247955 170.0 
498.436279 275.0 
498.497589 111.0 
498.961914 113.0 
499.093903 164.0 
499.205597 244.0 
499.340637 33077.0 
499.447479 114.0 
499.852295 153.0 
499.939911 128.0 
499.986481 108.0 
500.162933 107.0 
500.220428 163.0 
500.341156 7958.0 
501.460815 145.0 
501.504547 232.0 
501.785004 122.0 
501.955444 279.0 
502.02005 123.0 
502.345398 161.0 
502.8479 111.0 
502.896332 261.0 
503.203156 96.0 
503.296112 123.0 
503.407867 107.0 
504.495422 126.0 
504.812653 154.0 
505.576569 117.0 
505.805176 172.0 
506.226776 102.0 
506.766449 142.0 
506.901611 110.0 
507.481995 160.0 
509.199677 238.0 
509.32135 2112.0 
509.728271 137.0 
509.806885 88.0 
509.894257 277.0 
510.325256 314.0 
510.821289 113.0 
511.007507 340.0 
511.30542 214.0 
511.342804 363.0 
511.399872 203.0 
511.440002 192.0 
511.641754 131.0 
511.775452 152.0 
512.058289 88.0 
512.163879 144.0 
512.370911 26132.0 
512.460632 115.0 
512.734253 117.0 
512.874084 96.0 
513.272095 426.0 
513.317444 6468.0 
513.374084 6023.0 
513.590027 85.0 
513.679077 86.0 
514.178345 221.0 
514.241882 115.0 
514.321594 855.0 
514.38092 193.0 
514.768494 111.0 
515.036499 169.0 
515.328552 136.0 
515.47052 231.0 
515.54187 157.0 
516.008728 246.0 
516.549866 93.0 
516.73053 144.0 
517.139099 136.0 
517.211182 230.0 
518.061829 82.0 
518.220032 116.0 
519.123352 214.0 
519.404541 139.0 
519.604431 135.0 
519.950195 301.0 
520.019531 142.0 
520.137939 81.0 
520.368774 97.0 
520.661377 186.0 
521.190735 100.0 
521.305298 346.0 
521.421204 134.0 
521.593628 102.0 
521.77771 159.0 
521.830872 121.0 
522.0849 89.0 
522.235535 127.0 
522.406799 110.0 
522.698486 259.0 
522.858704 81.0 
522.903442 120.0 
523.255798 192.0 
523.341003 202.0 
523.524963 103.0 
523.56073 201.0 
523.652954 95.0 
523.81366 158.0 
523.899902 101.0 
524.066956 109.0 
524.102783 135.0 
524.300415 157.0 
524.356079 112.0 
524.411194 119.0 
524.486267 244.0 
524.532532 179.0 
524.706055 94.0 
524.742188 118.0 
524.812073 296.0 
524.86554 97.0 
524.917419 360.0 
525.007568 661.0 
525.154236 628.0 
525.352478 580.0 
525.423645 200.0 
525.51001 396.0 
525.629211 252.0 
525.718689 178.0 
525.808289 588.0 
526.004822 130.0 
526.060669 751.0 
526.143188 353.0 
526.20697 336.0 
526.246521 475.0 
526.303955 272.0 
526.342834 674.0 
526.408325 490.0 
526.483704 236.0 
526.541138 522.0 
526.611206 344.0 
526.677856 449.0 
526.726257 303.0 
526.773438 452.0 
526.823242 390.0 
526.928223 260.0 
527.068359 1543.0 
527.131714 2405.0 
527.334717 1378526.0 
527.490601 672.0 
527.603821 743.0 
527.730225 764.0 
527.817383 687.0 
527.869263 403.0 
527.927124 858.0 
527.995483 946.0 
528.071106 510.0 
528.108643 666.0 
528.203308 2287.0 
528.337891 282169.0 
528.493408 612.0 
528.632751 444.0 
528.695007 135.0 
528.73584 321.0 
528.815552 300.0 
528.884155 628.0 
528.947327 293.0 
529.173279 282.0 
529.246155 744.0 
529.34082 22602.0 
529.414246 132.0 
529.487 439.0 
529.552917 214.0 
529.586609 361.0 
529.760254 214.0 
529.874573 134.0 
529.941467 225.0 
530.004395 232.0 
530.065491 113.0 
530.111877 208.0 
530.181091 160.0 
530.338257 202.0 
530.48114 267.0 
530.60321 124.0 
530.646301 199.0 
530.676575 271.0 
530.74408 141.0 
530.812195 82.0 
530.892456 221.0 
530.940674 161.0 
531.033203 159.0 
531.152344 314.0 
531.207031 508.0 
531.256042 248.0 
531.318909 329.0 
531.361267 352.0 
531.427002 444.0 
531.517151 1049.0 
531.575989 363.0 
531.649719 279.0 
531.702881 527.0 
531.761108 209.0 
531.857361 161.0 
531.997681 127.0 
532.218506 219.0 
532.284302 307.0 
532.504944 115.0 
532.69043 194.0 
532.8078 119.0 
532.962708 114.0 
533.095703 270.0 
533.213196 83.0 
533.612488 121.0 
536.265137 75.0 
538.299744 103.0 
539.367798 418.0 
539.679749 74.0 
540.291748 223.0 
540.363098 3011.0 
540.565613 91.0 
541.063843 107.0 
541.357605 1435.0 
542.239075 133.0 
543.203613 97.0 
543.613647 82.0 
543.730652 93.0 
543.800598 88.0 
545.294067 173.0 
545.924438 137.0 
548.265503 189.0 
549.110229 111.0 
549.262146 93.0 
550.39209 170.0 
550.968445 269.0 
551.321228 314.0 
551.5401 112.0 
553.396423 103.0 
554.426392 351.0 
554.735535 127.0 
555.474304 175.0 
555.973999 207.0 
556.582703 124.0 
556.789001 103.0 
558.012207 97.0 
558.370972 1071.0 
559.200317 82.0 
560.260132 189.0 
561.232239 238.0 
563.463989 232.0 
564.145752 197.0 
564.755249 177.0 
565.62207 197.0 
565.723328 232.0 
566.148376 120.0 
567.322815 122.0 
568.251343 195.0 
568.301025 114.0 
568.476379 205.0 
570.308044 156.0 
570.38208 173.0 
571.189453 248.0 
572.126892 96.0 
572.580444 85.0 
577.466797 223.0 
578.232971 277.0 
579.329041 113.0 
579.576721 224.0 
579.962646 118.0 
580.747192 191.0 
581.584229 185.0 
583.844421 134.0 
584.423828 274.0 
586.127991 170.0 
586.677368 235.0 
587.369446 168.0 
587.984863 199.0 
588.042603 187.0 
588.124939 121.0 
588.502441 177.0 
588.593445 170.0 
589.280334 241.0 
590.569092 119.0 
591.630249 100.0 
591.739075 222.0 
593.457581 191.0 
594.428955 337.0 
595.640259 160.0 
596.599731 144.0 
597.733521 196.0 
598.235657 254.0 
599.28656 127.0 
600.150085 145.0 
600.612671 261.0 
600.70929 247.0 
603.05719 220.0 
605.100952 103.0 
605.50647 174.0 
605.955017 75.0 
606.302307 121.0 
608.2771 152.0 
608.541992 236.0 
610.12439 298.0 
610.457947 185.0 
610.764526 83.0 
610.873535 141.0 
611.171021 219.0 
611.780945 87.0 
612.223633 172.0 
612.298523 568.0 
612.423767 94697.0 
612.712769 103.0 
612.778625 152.0 
612.929688 265.0 
613.065247 119.0 
613.154907 220.0 
613.292786 146.0 
613.426392 24978.0 
613.534973 310.0 
613.679871 88.0 
613.815491 130.0 
614.128906 147.0 
614.42157 1090.0 
614.642029 144.0 
615.319641 186.0 
615.457397 233.0 
616.34436 84.0 
617.015503 117.0 
617.077332 144.0 
617.778442 160.0 
618.213379 119.0 
619.572205 85.0 
620.795715 176.0 
621.470825 100.0 
621.996826 101.0 
622.363342 926.0 
622.409668 4482.0 
623.339844 126.0 
623.408691 443.0 
623.500244 92.0 
624.405884 84.0 
624.637329 100.0 
624.798279 158.0 
625.661133 365.0 
625.779236 177.0 
625.91748 129.0 
626.181213 299.0 
627.355347 93.0 
628.445557 83.0 
629.032471 321.0 
629.15863 179.0 
629.454285 81.0 
629.514343 259.0 
629.855347 113.0 
630.482788 174.0 
630.917419 190.0 
631.008789 73.0 
631.235229 148.0 
631.484863 136.0 
631.738586 165.0 
632.00177 150.0 
632.619751 280.0 
632.948669 131.0 
633.11438 82.0 
633.266907 137.0 
633.318604 217.0 
633.483948 185.0 
633.581421 248.0 
633.669067 261.0 
633.777588 174.0 
634.044189 322.0 
634.204834 227.0 
634.234619 320.0 
634.60614 193.0 
634.702454 138.0 
634.812134 165.0 
634.937561 295.0 
635.144836 191.0 
635.278198 170.0 
635.35144 97.0 
635.503296 113.0 
635.549683 178.0 
635.623169 206.0 
635.845886 117.0 
635.964111 155.0 
636.259216 199.0 
636.354614 94.0 
636.421143 200.0 
636.576172 189.0 
636.695984 497.0 
636.84613 355.0 
636.941162 294.0 
637.091431 915.0 
637.199036 218.0 
637.251099 202.0 
637.319824 196.0 
637.444763 370.0 
637.497681 247.0 
637.554565 287.0 
637.638794 280.0 
637.722046 583.0 
637.796082 352.0 
637.883423 174.0 
637.946045 251.0 
638.030762 363.0 
638.087158 329.0 
638.146301 417.0 
638.294312 490.0 
638.375 219.0 
638.440125 293.0 
638.528687 482.0 
638.608704 358.0 
638.663025 806.0 
638.745972 927.0 
638.803101 349.0 
638.863647 1010.0 
638.944031 360.0 
639.004395 575.0 
639.085022 1106.0 
639.194214 757.0 
639.236206 516.0 
639.298584 1065.0 
639.362488 1280.0 
639.505554 580.0 
639.550598 620.0 
639.696106 1443.0 
639.846497 873.0 
639.94635 1568.0 
639.978882 1543.0 
640.032776 1450.0 
640.158325 2765.0 
640.210388 2978.0 
640.419312 2163145.0 
640.550781 993.0 
640.66272 851.0 
640.756775 1424.0 
640.815674 1598.0 
640.982544 1175.0 
641.034424 1240.0 
641.155212 1955.0 
641.213257 2077.0 
641.422302 567126.0 
641.597473 862.0 
641.684387 1060.0 
641.748901 706.0 
641.799438 701.0 
641.832581 542.0 
641.912537 416.0 
642.01001 691.0 
642.076172 687.0 
642.144897 616.0 
642.259399 890.0 
642.353333 2701.0 
642.424438 36706.0 
642.569824 602.0 
642.605835 546.0 
642.725952 142.0 
642.762146 238.0 
642.805481 249.0 
642.897888 455.0 
642.965027 569.0 
643.016602 701.0 
643.122925 155.0 
643.162292 376.0 
643.252563 394.0 
643.334656 243.0 
643.439514 303.0 
643.619568 407.0 
643.801819 144.0 
643.967102 105.0 
644.003967 141.0 
644.088867 188.0 
644.192871 639.0 
644.341858 647.0 
644.423828 634.0 
644.481995 296.0 
644.575684 354.0 
644.61908 497.0 
644.724182 669.0 
644.75824 830.0 
644.846924 1177.0 
644.934509 986.0 
645.054382 726.0 
645.154907 844.0 
645.185913 871.0 
645.264282 416.0 
645.381287 428.0 
645.54425 177.0 
645.637817 163.0 
645.686584 159.0 
645.787231 239.0 
645.869995 183.0 
645.961792 199.0 
646.018616 415.0 
646.070251 373.0 
646.189697 148.0 
646.296753 212.0 
646.538147 160.0 
646.618347 101.0 
647.232178 171.0 
647.732422 81.0 
647.846985 174.0 
649.755432 87.0 
649.864441 101.0 
652.108032 100.0 
652.404114 150.0 
652.819824 229.0 
652.993713 83.0 
653.577698 228.0 
653.696472 91.0 
655.306152 100.0 
655.896545 103.0 
655.954102 97.0 
656.238892 105.0 
656.747009 102.0 
656.937988 90.0 
657.163757 106.0 
657.222839 114.0 
658.275696 606.0 
658.43103 60586.0 
659.112122 100.0 
659.309143 83.0 
659.431213 15322.0 
659.53009 109.0 
659.660767 105.0 
659.72821 101.0 
659.765869 142.0 
660.34082 241.0 
660.455322 1147.0 
663.050659 122.0 
663.143982 82.0 
663.836487 95.0 
664.769226 122.0 
665.614563 93.0 
665.954651 123.0 
666.921509 154.0 
667.25 126.0 
668.690918 84.0 
676.347351 218.0 
681.18457 182.0 
686.139038 174.0 
697.556946 185.0 
705.198242 96.0 
707.520081 76.0 
740.572388 75.0 
748.629517 134.0 
751.147888 138.0 
764.244263 112.0 
764.9823 150.0 
798.375183 111.0 
823.222656 90.0 
833.862366 143.0 
859.400818 105.0 
864.17157 133.0 
885.795654 283.0 
891.279358 182.0 
903.67572 152.0 
904.571777 167.0 
911.418579 105.0 
918.164978 118.0 
921.086121 115.0 
921.7948 173.0 
939.09021 168.0 
942.450317 231.0 
943.879944 85.0 
952.011475 116.0 
956.35907 256.0 
1001.144348 114.0 
1003.574768 120.0 
1028.990601 187.0 
1032.52063 189.0 
1042.358765 166.0 
1043.325806 173.0 
1044.915649 186.0 
1057.264893 213.0 
1084.410522 202.0 
1089.862793 216.0 
1090.047363 236.0 
1116.04895 119.0 
1138.737671 119.0 
1190.440308 197.0 
1190.540039 306.0 
1190.767334 84.0 
1211.144043 218.0 
1234.955078 119.0 
1252.540771 334.0 
1270.798706 400.0 
1274.492676 185.0 
1284.877075 133.0 
1296.035889 129.0 
1313.42981 341.0 
1321.064453 99.0 
1335.71936 214.0 
1341.750977 309.0 
1349.168091 86.0 
1352.02356 246.0 
1353.240601 127.0 
1353.527954 250.0 
1353.86084 293.0 
1359.424316 91.0 
1372.411011 158.0 
1374.939087 224.0 
1378.525635 211.0 
1388.023315 270.0 
1393.07605 244.0 
1394.52356 120.0 
1396.675415 233.0 
1401.172119 86.0 
1414.472778 174.0 
1416.645996 204.0 
1422.816406 241.0 
1442.874146 234.0 
1443.803955 255.0 
1446.162598 268.0 
1450.045044 121.0 
1457.401123 390.0 
1460.484619 320.0 
1464.453003 252.0 
1468.586792 191.0 
1478.983887 159.0 
1480.9375 252.0 
1491.167847 177.0 
1492.805298 216.0 
1498.557983 128.0 
1501.760376 201.0 
1504.604492 215.0 
1505.697144 233.0 
1507.498291 235.0 
1511.788818 237.0 
1520.609497 269.0 
1521.323242 170.0 
1521.813965 262.0 
1536.839844 176.0 
1537.310913 274.0 
1538.348999 187.0 
1546.524048 100.0 
1549.482056 211.0 
1559.658569 153.0 
1563.167847 114.0 
1568.78479 270.0 
1569.376221 221.0 
1573.197998 375.0 
1585.199951 117.0 
1588.197144 349.0 
1589.195068 131.0 
1592.153931 215.0 
1606.599121 190.0 
1608.113403 242.0 
1613.095093 202.0 
1615.274292 219.0 
1618.906494 244.0 
1619.691162 206.0 
1621.68103 187.0 
1626.153931 250.0 
1628.366455 161.0 
1636.357178 222.0 
1637.446289 176.0 
1643.114746 103.0 
1646.850464 252.0 
1647.338135 256.0 
1650.01123 353.0 
1651.663818 344.0 
1659.533813 199.0 
1662.569458 177.0 
1662.809204 272.0 
1663.240234 172.0 
1664.401855 263.0 
1675.253906 168.0 
1677.256592 218.0 
1678.387573 244.0 
1679.942749 230.0 
1687.69458 120.0 
1691.565918 112.0 
1694.627075 319.0 
1696.37146 219.0 
1700.46521 179.0 
1704.800293 310.0 
1707.137573 222.0 
1709.030273 277.0 
1711.252563 264.0 
1714.201538 211.0 
1716.104004 268.0 
1718.289673 202.0 
1720.322998 195.0 
1721.810181 81.0 
1724.003418 89.0 
1724.691162 284.0 
1730.307007 205.0 
1732.761841 318.0 
1734.822266 272.0 
1736.427002 226.0 
1738.880249 287.0 
1739.00708 233.0 
1740.791748 373.0 
1741.378296 176.0 
1741.960938 217.0 
1742.720947 318.0 
1743.385742 200.0 
1749.187622 165.0 
1749.999878 223.0 
1756.977539 109.0 
1757.242676 240.0 
1757.334351 156.0 
1758.27124 233.0 
1762.933716 185.0 
1763.509399 268.0 
1766.972778 189.0 
1769.218994 149.0 
1770.459229 245.0 
1773.874878 267.0 
1776.262451 395.0 
1777.016602 289.0 
1778.809814 195.0 
1781.330933 206.0 
1781.656372 167.0 
1791.444946 313.0 
1799.379395 181.0 
1799.80603 281.0 
1801.418213 280.0 
1802.594849 260.0 
1802.775146 223.0 
1803.635864 196.0 
1805.34436 278.0 
1808.27771 127.0 
1809.553345 220.0 
1811.897705 129.0 
1814.12207 168.0 
1815.010254 216.0 
1815.190918 171.0 
1817.784668 267.0 
1818.993164 202.0 
1820.62207 179.0 
1823.354858 268.0 
1823.707153 269.0 
1824.894531 167.0 
1826.338135 97.0 
1827.852173 280.0 
1828.162964 111.0 
1830.177002 109.0 
1835.604858 486.0 
1840.497925 81.0 
1846.276855 216.0 
1846.63269 228.0 
1847.0 272.0 
1848.033813 147.0 
1848.153198 130.0 
1848.5271 119.0 
1848.722534 272.0 
1852.243774 372.0 
1853.375732 171.0 
1856.805786 212.0 
1857.364624 291.0 
1858.355591 206.0 
1859.334839 192.0 
1860.492188 189.0 
1865.594727 180.0 
1865.776367 118.0 
1866.633789 218.0 
1867.007324 163.0 
1869.567017 262.0 
1874.054443 122.0 
1875.500488 253.0 
1875.61731 254.0 
1876.800049 225.0 
1878.682129 135.0 
1879.364502 149.0 
1880.013306 133.0 
1882.948853 169.0 
1883.471924 273.0 
1886.428101 250.0 
1887.047729 157.0 
1888.010376 221.0 
1892.94812 261.0 
1893.542969 112.0 
1894.20459 168.0 
1898.105835 271.0 
1898.492065 135.0 
1901.296875 327.0 
1908.490967 137.0 
1910.981812 298.0 
1912.071655 169.0 
1913.891479 275.0 
1914.664795 233.0 
1923.766602 396.0 
1923.85791 218.0 
1925.91626 292.0 
1926.094849 200.0 
1928.063721 86.0 
1928.339722 271.0 
1929.540283 210.0 
1935.573853 104.0 
1937.980957 108.0 
1943.36377 330.0 
1947.618774 236.0 
1948.807983 274.0 
1949.555542 185.0 
1955.243652 261.0 
1955.565063 194.0 
1956.145752 104.0 
1957.245361 162.0 
1957.643188 236.0 
1958.301758 385.0 
1961.260986 295.0 
1963.451904 170.0 
1964.478149 290.0 
1965.313477 167.0 
1967.020386 257.0 
1967.346558 234.0 
1967.470825 282.0 
1971.986084 146.0 
1975.805664 303.0 
1979.699097 208.0 
1979.808105 215.0 
1980.090088 160.0 
1980.353882 252.0 
1984.564453 342.0 
1985.615356 240.0 
1987.012939 208.0 
1995.002686 198.0 
1997.460083 331.0 
1998.243896 275.0 
1998.456909 477.0 
1999.072266 240.0 
1999.80896 171.0 
END IONS

BEGIN IONS
TITLE=Scan Number: 522
PEPMASS=657.44299
CHARGE=1+
MSLEVEL=2
FILENAME=A12_BA12_01_2844.mzXML
INSTRUMENT=ion trap
SCANS=522
SMILES=CC(C)[C@H]1OC(=O)[C@H](C(C)C)N(C)C(=O)[C@H](OC(=O)[C@H](C(C)C)N(C)C(=O)[C@H](OC(=O)[C@H](C(C)C)N(C)C1=O)C(C)C)C(C)C
INCHIKEY=MIZMDSVSLSIMSC-VYLWARHZSA-N
70.064682 659.0 
71.071922 2448.0 
71.289505 173.0 
71.88414 168.0 
72.080582 14321.0 
72.124542 274.0 
72.17347 135.0 
72.318268 117.0 
72.741653 298.0 
73.063385 969.0 
73.082489 939.0 
74.159042 180.0 
74.28492 193.0 
74.314659 160.0 
74.916367 133.0 
75.360207 207.0 
75.405457 354.0 
75.629768 117.0 
76.203186 150.0 
76.334785 289.0 
76.651497 149.0 
77.953423 426.0 
78.076797 266.0 
78.338547 253.0 
78.512619 137.0 
78.739296 277.0 
78.790092 119.0 
79.264465 118.0 
79.65786 285.0 
79.723465 202.0 
80.503677 204.0 
80.780716 160.0 
81.064651 138.0 
81.307693 315.0 
81.562531 199.0 
82.310921 190.0 
82.410492 213.0 
82.769241 268.0 
83.012314 302.0 
83.048241 4107.0 
83.197777 336.0 
83.230171 228.0 
83.611008 353.0 
83.663902 272.0 
83.991631 215.0 
84.013138 318.0 
84.042458 199.0 
84.080696 8261.0 
84.204887 222.0 
84.257675 286.0 
84.454712 335.0 
84.565788 216.0 
84.683495 80.0 
84.750122 133.0 
84.949898 154.0 
85.082283 189.0 
85.161606 259.0 
85.215378 177.0 
85.332886 77.0 
85.533707 253.0 
85.685905 171.0 
85.712303 122.0 
85.792503 167.0 
85.864922 391.0 
85.907295 185.0 
85.925705 272.0 
86.0187 201.0 
86.045769 319.0 
86.096031 359071.0 
86.140854 140.0 
86.185272 329.0 
86.224251 449.0 
86.255836 249.0 
86.30899 239.0 
86.434578 74.0 
86.645142 77.0 
86.693031 119.0 
86.713509 256.0 
86.837852 124.0 
86.869087 185.0 
87.098732 17093.0 
87.201614 93.0 
87.595154 454.0 
87.636497 114.0 
87.727203 253.0 
87.750069 156.0 
87.773399 223.0 
87.86322 71.0 
87.963097 120.0 
87.998604 77.0 
88.103951 162.0 
88.402275 102.0 
88.46405 113.0 
88.533813 109.0 
88.819878 198.0 
88.959236 197.0 
89.695747 118.0 
90.113861 227.0 
90.802589 220.0 
91.078056 248.0 
91.397415 103.0 
91.781715 118.0 
92.068909 130.0 
92.223343 169.0 
92.387047 502.0 
92.461655 95.0 
92.928185 285.0 
93.069298 192.0 
93.12912 262.0 
93.148888 155.0 
93.254486 155.0 
93.757042 89.0 
94.062523 266.0 
94.546684 357.0 
94.630142 228.0 
94.934677 286.0 
94.995773 108.0 
95.654243 95.0 
95.900826 130.0 
96.15284 278.0 
96.180504 200.0 
96.361176 158.0 
96.85006 167.0 
97.06324 123.0 
97.099739 391.0 
97.39521 174.0 
97.632591 220.0 
98.096375 582.0 
98.482178 152.0 
98.871201 179.0 
99.147133 267.0 
99.451004 315.0 
99.731995 155.0 
99.759186 172.0 
99.904907 262.0 
99.936691 238.0 
100.008217 309.0 
100.060883 274.0 
100.076813 408.0 
100.11219 71624.0 
100.21225 201.0 
100.286087 125.0 
100.43187 102.0 
100.819206 136.0 
100.993927 214.0 
101.059906 2570.0 
101.114708 5148.0 
101.389359 222.0 
102.004707 131.0 
102.082428 283.0 
102.650757 228.0 
103.488625 268.0 
103.522453 216.0 
104.07692 270.0 
105.106133 359.0 
106.42659 357.0 
107.211212 273.0 
107.872116 250.0 
108.081787 1727.0 
108.327278 357.0 
108.914536 215.0 
109.101143 855.0 
109.207466 276.0 
109.245094 120.0 
109.477684 201.0 
109.601807 205.0 
110.097328 484.0 
111.04895 348.0 
111.117638 1818.0 
111.347763 287.0 
111.368248 170.0 
111.521645 272.0 
112.021339 104.0 
112.076439 4154.0 
112.120262 448.0 
112.375877 289.0 
112.664986 296.0 
112.977608 110.0 
113.009628 83.0 
113.07943 470.0 
113.733597 203.0 
113.762474 146.0 
113.826401 87.0 
114.066109 164.0 
114.091583 2665.0 
114.726654 140.0 
115.099129 284.0 
115.12912 233.0 
115.314911 182.0 
116.072357 195.0 
117.116516 228.0 
117.232773 302.0 
118.085007 598.0 
118.867867 247.0 
119.211494 282.0 
119.738319 228.0 
120.408913 141.0 
120.476204 187.0 
121.100136 131.0 
122.101135 228.0 
123.119194 171.0 
123.574066 212.0 
124.785889 174.0 
124.809776 231.0 
125.086533 587.0 
125.769699 275.0 
125.95681 290.0 
126.053856 1026.0 
126.091354 1838.0 
126.247086 82.0 
126.678894 152.0 
126.862114 80.0 
127.110405 154.0 
127.184135 103.0 
127.824387 70.0 
128.068939 129.0 
128.109238 389.0 
128.138107 189.0 
128.721329 150.0 
129.026688 97.0 
129.053986 1417.0 
129.267807 306.0 
130.001328 153.0 
130.05481 141.0 
130.085556 2670.0 
130.454269 239.0 
130.961395 243.0 
131.084106 288.0 
131.107071 166.0 
131.883591 355.0 
131.967499 189.0 
132.102585 5530.0 
132.506027 170.0 
133.106354 259.0 
133.608749 199.0 
133.79158 262.0 
134.676743 70.0 
136.105835 232.0 
137.093185 435.0 
137.118774 174.0 
138.071243 248.0 
138.093216 166.0 
138.21756 141.0 
139.109909 1030.0 
139.196518 269.0 
139.918411 97.0 
140.071793 785.0 
140.105759 834.0 
140.156723 254.0 
140.909943 132.0 
141.077362 154.0 
141.121628 189.0 
142.084412 442.0 
142.218155 148.0 
142.655899 167.0 
142.690872 149.0 
142.993073 279.0 
143.035217 167.0 
143.083984 332.0 
143.527145 114.0 
144.071503 179.0 
144.101746 676.0 
144.136978 225.0 
145.122162 4044.0 
145.613113 230.0 
145.787643 304.0 
146.070251 129.0 
146.117615 3101.0 
146.155472 284.0 
146.862411 104.0 
147.024521 198.0 
147.124695 135.0 
148.581863 277.0 
149.001984 170.0 
149.150345 125.0 
149.189636 175.0 
149.509399 274.0 
150.128677 97.0 
150.383652 278.0 
150.69548 235.0 
151.396225 238.0 
151.845978 93.0 
151.992676 156.0 
152.064072 162.0 
152.143341 3476.0 
152.339615 329.0 
152.662262 138.0 
153.084625 141.0 
153.13063 893.0 
153.964355 98.0 
154.086411 444.0 
154.122437 4067.0 
154.50592 248.0 
155.109528 113.0 
155.130127 400.0 
155.73175 99.0 
156.022797 106.0 
156.061554 167.0 
156.272064 74.0 
157.06218 192.0 
158.082535 289.0 
158.120056 2837.0 
158.154846 2160.0 
158.232849 90.0 
158.556152 167.0 
158.631577 186.0 
158.903076 252.0 
159.056671 240.0 
159.124451 257.0 
159.336395 216.0 
160.001572 181.0 
160.068344 310.0 
160.094818 68.0 
160.332886 199.0 
160.905807 193.0 
161.652863 312.0 
161.995529 240.0 
162.065857 126.0 
162.244858 191.0 
162.377441 136.0 
162.878113 329.0 
163.404846 170.0 
163.528702 254.0 
164.362717 137.0 
164.481949 491.0 
164.583542 303.0 
165.168716 204.0 
165.203857 190.0 
165.249374 98.0 
165.879868 229.0 
165.95932 201.0 
166.000122 137.0 
166.053299 157.0 
166.086502 8869.0 
166.315552 274.0 
166.963989 108.0 
167.047256 175.0 
167.090332 1469.0 
167.160019 138.0 
167.32515 131.0 
167.614136 239.0 
167.712616 189.0 
168.041351 103.0 
168.102188 8979.0 
168.138474 44246.0 
168.189682 105.0 
168.320892 217.0 
168.591354 120.0 
168.971176 132.0 
169.041275 168.0 
169.106842 724.0 
169.140335 3399.0 
169.199005 174.0 
170.114594 233.0 
170.143768 589.0 
170.350647 84.0 
170.522949 139.0 
170.70639 143.0 
170.756454 146.0 
171.065598 188.0 
171.566498 117.0 
171.821014 142.0 
171.973328 262.0 
172.095612 625.0 
172.133438 26829.0 
172.240829 197.0 
172.667099 155.0 
173.136261 1910.0 
174.397369 202.0 
175.569687 212.0 
175.663559 238.0 
175.854568 309.0 
176.330521 204.0 
176.616501 250.0 
177.354172 189.0 
178.037079 178.0 
178.122086 370.0 
178.794174 198.0 
179.006912 188.0 
179.27063 148.0 
179.645966 231.0 
179.853333 211.0 
179.88179 286.0 
179.970047 133.0 
180.092743 207.0 
180.756836 159.0 
180.810883 194.0 
180.943176 217.0 
181.108887 9251.0 
181.145004 444.0 
181.524796 124.0 
181.715408 79.0 
181.761734 413.0 
182.008713 111.0 
182.03212 175.0 
182.117401 58298.0 
182.153641 3224.0 
182.21228 193.0 
182.278839 78.0 
182.31543 391.0 
182.378693 334.0 
182.590103 271.0 
182.775864 123.0 
182.876633 207.0 
183.121735 5152.0 
183.156403 429.0 
183.227051 188.0 
183.3591 89.0 
183.508484 205.0 
184.1259 510.0 
184.224182 127.0 
184.327332 119.0 
184.367905 279.0 
184.511063 98.0 
185.051636 178.0 
185.243515 122.0 
185.271896 174.0 
185.320419 366.0 
185.388321 112.0 
185.465057 85.0 
185.532242 368.0 
185.611023 237.0 
185.664246 171.0 
185.687592 193.0 
185.788712 316.0 
185.835419 83.0 
185.877441 139.0 
185.932327 216.0 
185.985489 601.0 
186.149048 350845.0 
186.213379 216.0 
186.28392 271.0 
186.387894 189.0 
186.425003 141.0 
186.471725 180.0 
186.503067 415.0 
186.579651 208.0 
186.651627 95.0 
186.767334 101.0 
186.814102 159.0 
186.863327 73.0 
186.987015 87.0 
187.081497 231.0 
187.114319 900.0 
187.151306 36478.0 
187.337036 219.0 
187.441406 212.0 
187.792145 179.0 
188.12352 455.0 
188.154861 612.0 
188.264877 125.0 
188.444519 103.0 
188.490265 210.0 
188.51445 198.0 
188.59108 297.0 
188.6418 127.0 
188.673035 191.0 
188.759857 341.0 
188.824371 159.0 
188.859451 637.0 
188.957916 237.0 
189.945251 275.0 
190.442123 118.0 
190.502472 137.0 
190.555679 80.0 
190.69693 150.0 
190.753479 104.0 
191.962738 165.0 
193.075348 143.0 
193.356339 136.0 
193.496887 220.0 
193.564667 91.0 
193.890167 211.0 
194.648499 193.0 
194.734787 79.0 
194.91655 117.0 
194.940094 179.0 
195.012131 286.0 
195.121994 438.0 
195.165558 276.0 
195.193542 378.0 
195.222702 163.0 
195.285339 260.0 
195.424088 307.0 
195.459106 78.0 
195.504639 390.0 
195.57605 159.0 
195.600571 465.0 
195.66095 171.0 
195.684158 407.0 
195.757919 456.0 
195.823257 222.0 
195.861252 174.0 
195.910568 402.0 
195.972488 465.0 
195.997314 465.0 
196.133469 998150.0 
196.199005 315.0 
196.284821 328.0 
196.34404 233.0 
196.368301 406.0 
196.412048 299.0 
196.432541 347.0 
196.493546 258.0 
196.562225 271.0 
196.738464 293.0 
196.790085 211.0 
196.818405 344.0 
196.864899 265.0 
196.987335 231.0 
197.012756 152.0 
197.03862 207.0 
197.077637 502.0 
197.137009 96705.0 
197.215073 129.0 
197.335526 429.0 
197.46936 112.0 
197.702087 270.0 
198.075272 237.0 
198.113876 587.0 
198.139664 4792.0 
198.228638 141.0 
198.295761 85.0 
198.352509 307.0 
198.400574 160.0 
198.447601 458.0 
198.526611 328.0 
198.572983 80.0 
198.613144 290.0 
198.639816 512.0 
198.687866 382.0 
198.7397 138.0 
198.781677 220.0 
198.830536 111.0 
198.858871 94.0 
199.107971 339.0 
199.177643 206.0 
199.336761 141.0 
199.492645 293.0 
199.59584 106.0 
199.638687 209.0 
199.910812 110.0 
199.97374 144.0 
200.050262 128.0 
200.128357 56215.0 
200.164749 28893.0 
200.352203 105.0 
200.498154 139.0 
200.690567 207.0 
200.727585 174.0 
200.912628 97.0 
200.933029 148.0 
201.128265 6466.0 
201.167572 3326.0 
201.340271 138.0 
201.441116 71.0 
201.516098 127.0 
201.689026 149.0 
202.106049 212.0 
202.353104 617.0 
202.79071 249.0 
203.110809 250.0 
203.155533 141.0 
203.270447 152.0 
203.759781 479.0 
203.931625 213.0 
204.092697 195.0 
204.122238 353.0 
204.250305 89.0 
204.547211 69.0 
204.69487 137.0 
204.88736 115.0 
205.651855 152.0 
205.715424 99.0 
206.176041 145.0 
206.338608 127.0 
206.46698 172.0 
206.619308 116.0 
208.082199 105.0 
208.169754 165.0 
208.836502 154.0 
209.06926 106.0 
209.252487 105.0 
209.368408 250.0 
209.508408 288.0 
209.729385 344.0 
209.886337 115.0 
210.055786 178.0 
210.148895 81062.0 
210.207382 276.0 
210.33075 107.0 
210.433792 404.0 
210.754349 75.0 
210.85582 193.0 
211.035568 96.0 
211.152847 5631.0 
211.226685 220.0 
211.428192 101.0 
211.563004 93.0 
211.640518 252.0 
211.913452 258.0 
212.056442 117.0 
212.105545 254.0 
212.131943 147.0 
212.157394 305.0 
212.299408 76.0 
212.61203 123.0 
212.785126 147.0 
212.818085 98.0 
212.883331 83.0 
212.975922 126.0 
213.067383 411.0 
213.104767 133.0 
213.23233 217.0 
213.270355 102.0 
213.342819 339.0 
213.413651 143.0 
213.48909 96.0 
213.520691 407.0 
213.572372 157.0 
213.614334 447.0 
213.670425 220.0 
213.711487 169.0 
213.884766 411.0 
213.954834 236.0 
213.975327 314.0 
214.022842 200.0 
214.05983 1083.0 
214.144058 813887.0 
214.221542 431.0 
214.26355 171.0 
214.287888 147.0 
214.333054 444.0 
214.356094 361.0 
214.411545 497.0 
214.442215 201.0 
214.506577 118.0 
214.530701 538.0 
214.596207 173.0 
214.62294 367.0 
214.683243 359.0 
214.773254 100.0 
214.970032 364.0 
215.012283 121.0 
215.068558 305.0 
215.147202 77187.0 
215.542557 175.0 
215.633987 91.0 
216.148834 5731.0 
216.218613 99.0 
216.298279 148.0 
216.492416 167.0 
216.523987 147.0 
216.563553 195.0 
216.633469 277.0 
216.731995 194.0 
216.811966 561.0 
216.872894 442.0 
216.901932 399.0 
216.933365 168.0 
217.12735 76.0 
217.148544 117.0 
217.266739 132.0 
217.589493 108.0 
217.805542 109.0 
218.122177 124.0 
218.147995 163.0 
219.140152 205.0 
219.40506 278.0 
221.38855 149.0 
223.528397 82.0 
224.291656 66.0 
224.451035 104.0 
224.670013 78.0 
225.159836 80.0 
225.367142 162.0 
226.690109 249.0 
226.857513 182.0 
227.182236 106.0 
227.212875 88.0 
227.2789 67.0 
227.397583 150.0 
227.450729 215.0 
227.814621 279.0 
227.966827 183.0 
228.070251 87.0 
228.159714 56326.0 
228.229874 87.0 
228.308105 87.0 
228.361511 69.0 
228.960846 104.0 
229.106491 793.0 
229.161728 5397.0 
229.241608 94.0 
229.400421 161.0 
229.746399 234.0 
229.949692 74.0 
230.17276 490.0 
230.371658 86.0 
230.905807 257.0 
230.964203 80.0 
231.600784 216.0 
232.154205 5273.0 
232.537048 82.0 
232.753113 73.0 
232.899734 262.0 
233.095139 144.0 
233.153 1017.0 
234.289566 97.0 
235.417816 174.0 
236.090668 131.0 
237.823151 115.0 
238.002045 147.0 
238.576202 117.0 
240.916855 201.0 
241.084427 186.0 
241.479431 154.0 
241.5159 157.0 
242.134216 295.0 
242.628174 120.0 
243.135117 173.0 
243.170593 113.0 
244.110107 188.0 
246.170105 1109.0 
246.59198 169.0 
247.171387 549.0 
247.402908 105.0 
247.509796 94.0 
248.108551 208.0 
248.360397 181.0 
249.373886 233.0 
249.644379 277.0 
249.6922 215.0 
249.751068 90.0 
249.887741 128.0 
250.379623 156.0 
250.647018 82.0 
251.454987 136.0 
252.109009 168.0 
254.076797 121.0 
254.141891 147.0 
254.243027 204.0 
254.658524 301.0 
254.850815 182.0 
255.149719 174.0 
255.288223 236.0 
255.682648 128.0 
256.484039 206.0 
257.122833 80.0 
258.502716 221.0 
259.139343 157.0 
262.095459 90.0 
262.140015 174.0 
262.336212 99.0 
263.197327 207.0 
265.555603 249.0 
266.542725 247.0 
267.557831 87.0 
267.973236 226.0 
268.146332 155.0 
268.19339 1465.0 
268.462799 112.0 
268.489655 221.0 
268.966858 193.0 
269.188599 162.0 
270.226013 96.0 
270.341095 367.0 
270.569305 130.0 
271.029297 92.0 
271.769989 99.0 
272.194977 153.0 
272.845673 111.0 
274.214661 176.0 
274.440277 75.0 
275.297791 179.0 
278.394562 197.0 
279.967102 187.0 
280.755402 344.0 
281.23056 293.0 
281.894775 149.0 
282.169708 182.0 
282.209869 541.0 
283.177277 361.0 
283.214325 123.0 
284.117767 148.0 
285.182831 88.0 
285.21701 1065.0 
285.49231 179.0 
285.583282 237.0 
285.651703 165.0 
286.126129 361.0 
286.16571 5252.0 
286.906738 194.0 
287.125793 216.0 
287.169495 590.0 
287.387817 138.0 
288.099609 311.0 
288.215424 74.0 
288.749603 183.0 
288.808319 211.0 
289.111694 74.0 
289.14801 138.0 
289.624969 141.0 
289.779968 91.0 
291.25708 197.0 
291.579681 153.0 
291.927521 107.0 
293.40097 87.0 
294.098236 225.0 
295.144348 123.0 
295.538849 91.0 
295.62323 142.0 
296.13092 159.0 
296.188385 5124.0 
296.436462 188.0 
296.48587 127.0 
297.193542 1252.0 
297.41098 80.0 
297.868622 168.0 
298.170013 124.0 
298.351746 143.0 
298.388733 164.0 
298.787659 89.0 
298.913818 95.0 
299.16449 187.0 
299.234253 7878.0 
299.43869 99.0 
299.663574 194.0 
300.090302 205.0 
300.180939 35537.0 
300.237 2148.0 
301.182159 6315.0 
302.101685 103.0 
302.192078 328.0 
302.559692 87.0 
302.914368 298.0 
302.97464 127.0 
303.022369 164.0 
303.277252 256.0 
303.430969 115.0 
303.635101 186.0 
303.838104 104.0 
305.071136 292.0 
306.909943 95.0 
306.981567 261.0 
309.965759 159.0 
310.199707 240.0 
310.960632 151.0 
311.157806 121.0 
311.644867 106.0 
312.177734 98.0 
312.37854 290.0 
312.412476 122.0 
312.749725 130.0 
312.821838 120.0 
312.950165 78.0 
312.996765 65.0 
313.107788 258.0 
313.141602 116.0 
313.213928 2744.0 
313.249847 301.0 
313.285675 107.0 
313.371674 138.0 
313.528412 175.0 
313.730499 224.0 
313.827606 371.0 
313.863129 197.0 
313.924866 350.0 
313.980896 164.0 
314.019806 269.0 
314.197052 331830.0 
314.309357 331.0 
314.330933 324.0 
314.368256 81.0 
314.482605 209.0 
314.591553 90.0 
314.624512 458.0 
314.670044 120.0 
314.707672 88.0 
314.739624 106.0 
314.822693 92.0 
314.922516 403.0 
315.102509 308.0 
315.200195 50707.0 
315.472748 163.0 
315.542175 237.0 
315.581329 120.0 
315.746857 236.0 
315.849762 172.0 
316.168457 337.0 
316.202454 3091.0 
317.158264 101.0 
317.28952 220.0 
317.351746 137.0 
317.394226 75.0 
317.435242 86.0 
317.504547 188.0 
317.615417 161.0 
318.581116 83.0 
318.653442 102.0 
319.366028 173.0 
319.896851 221.0 
321.22168 131.0 
321.777924 185.0 
323.171265 202.0 
325.212128 147.0 
325.326904 121.0 
326.147522 126.0 
326.853088 147.0 
327.111603 179.0 
327.167389 356.0 
327.228943 14617.0 
327.69577 119.0 
327.946228 264.0 
328.13385 174.0 
328.212921 16466.0 
328.307159 88.0 
328.360931 136.0 
328.486755 139.0 
329.179901 377.0 
329.216003 2823.0 
329.447266 221.0 
330.191132 213.0 
330.607452 148.0 
331.230713 510.0 
331.518768 91.0 
332.208771 974.0 
332.312256 135.0 
333.209961 121.0 
333.303741 255.0 
334.53714 183.0 
340.194733 183.0 
340.685425 214.0 
341.208038 189.0 
341.244293 619.0 
341.751953 134.0 
341.878876 231.0 
342.153992 241.0 
342.195892 234.0 
342.257843 470.0 
342.963593 249.0 
343.199646 161.0 
343.79599 74.0 
344.165985 184.0 
344.917053 172.0 
345.063904 96.0 
345.172333 201.0 
345.239441 6391.0 
345.409607 263.0 
345.564453 316.0 
345.756561 85.0 
345.90094 154.0 
346.231445 649.0 
346.284729 75.0 
346.957458 117.0 
347.921906 233.0 
348.314453 176.0 
348.833191 189.0 
349.635651 197.0 
350.997284 172.0 
354.217926 186.0 
355.19574 128.0 
355.230896 350.0 
356.110352 179.0 
357.569153 344.0 
359.244843 194.0 
359.26767 267.0 
361.679291 151.0 
364.063629 177.0 
366.343384 162.0 
367.266266 333.0 
372.154205 150.0 
373.206696 491.0 
373.275299 245.0 
374.383972 146.0 
375.416748 99.0 
379.2771 127.0 
381.281433 282.0 
381.804749 248.0 
382.284332 161.0 
382.575592 119.0 
382.757782 160.0 
385.274292 473.0 
386.254486 2188.0 
386.901276 143.0 
387.249023 182.0 
389.147736 132.0 
389.190887 131.0 
391.477539 223.0 
393.215271 376.0 
393.942932 178.0 
394.000946 437.0 
394.930878 162.0 
395.888763 107.0 
396.262634 110.0 
398.056732 141.0 
399.176544 160.0 
399.286682 15352.0 
400.233704 1303.0 
400.28717 1454.0 
401.136536 90.0 
401.236542 725.0 
401.311859 159.0 
402.210052 136.0 
402.612823 105.0 
402.87381 103.0 
403.928162 226.0 
403.994751 233.0 
404.956604 262.0 
405.430603 91.0 
406.346802 97.0 
406.567139 104.0 
408.007202 271.0 
408.454712 132.0 
409.272247 3010.0 
410.110016 142.0 
410.274628 368.0 
411.927856 378.0 
412.037109 88.0 
412.148804 260.0 
412.23233 126.0 
412.771637 395.0 
413.113434 100.0 
413.15976 304.0 
413.266327 12101.0 
413.792694 103.0 
414.10141 167.0 
414.250824 29140.0 
414.454681 106.0 
415.145599 201.0 
415.253082 5609.0 
416.250397 111.0 
416.716583 94.0 
416.916199 212.0 
417.193909 132.0 
417.616455 212.0 
419.222015 205.0 
423.251343 130.0 
423.387329 98.0 
423.529175 148.0 
423.993042 249.0 
424.300018 156.0 
424.452484 108.0 
425.218231 281.0 
425.282867 184.0 
425.457306 234.0 
425.526001 112.0 
425.796509 150.0 
425.856689 244.0 
426.024384 74.0 
426.167908 238.0 
426.266998 86.0 
426.368835 90.0 
426.402008 133.0 
426.561676 338.0 
426.610748 80.0 
426.657196 178.0 
426.93631 168.0 
427.068848 319.0 
427.118622 401.0 
427.18689 1382.0 
427.282013 165724.0 
427.392731 137.0 
427.456238 114.0 
427.684265 145.0 
427.739014 149.0 
427.842285 193.0 
427.897552 139.0 
428.027618 184.0 
428.180298 236.0 
428.285156 31620.0 
428.409271 136.0 
428.492767 174.0 
428.671906 224.0 
428.953461 148.0 
429.168427 202.0 
429.285645 2669.0 
429.873505 86.0 
429.981873 355.0 
430.243713 188.0 
430.362091 232.0 
430.788391 126.0 
430.973053 85.0 
431.148132 175.0 
431.216736 186.0 
431.273895 1801.0 
432.27243 169.0 
432.943298 133.0 
433.095917 96.0 
433.12796 168.0 
433.263336 233.0 
433.39444 233.0 
434.118713 67.0 
434.190704 256.0 
434.34906 69.0 
436.90387 175.0 
440.040985 155.0 
440.621826 127.0 
440.927094 91.0 
441.293518 4948.0 
441.427704 241.0 
442.298706 1056.0 
443.304413 507.0 
444.704803 84.0 
444.837463 126.0 
444.936279 118.0 
445.138855 265.0 
445.208313 136.0 
445.292725 30488.0 
445.468292 162.0 
445.608887 363.0 
445.826447 104.0 
446.146454 137.0 
446.295929 4575.0 
446.601532 196.0 
447.28772 386.0 
448.959442 82.0 
453.954102 122.0 
459.210846 253.0 
459.306488 2214.0 
459.779877 94.0 
459.908783 120.0 
460.311951 223.0 
460.469116 77.0 
460.838348 116.0 
461.723114 94.0 
462.329773 101.0 
463.137482 212.0 
463.358337 421.0 
464.134064 191.0 
464.225586 318.0 
469.467712 97.0 
471.908905 278.0 
472.930817 267.0 
473.32428 618.0 
474.815704 138.0 
478.908691 101.0 
479.3461 150.0 
481.275726 101.0 
481.327728 312.0 
481.502319 119.0 
482.357147 197.0 
483.243439 327.0 
484.133026 310.0 
484.936157 231.0 
485.287933 187.0 
485.976868 192.0 
486.331238 92.0 
486.540619 250.0 
487.486908 314.0 
488.918335 183.0 
490.015808 212.0 
493.257599 169.0 
493.973114 155.0 
495.308228 369.0 
495.892151 343.0 
497.034119 308.0 
497.227844 157.0 
497.28006 90.0 
497.745422 104.0 
498.261108 158.0 
499.144928 108.0 
499.336731 8717.0 
500.274231 121.0 
500.340393 1479.0 
500.830719 108.0 
501.24411 639.0 
501.355469 128.0 
502.086823 97.0 
506.019684 119.0 
506.527679 223.0 
507.006927 138.0 
508.271942 80.0 
509.318878 923.0 
509.694305 101.0 
510.311829 230.0 
510.486176 130.0 
511.310547 235.0 
511.43042 124.0 
511.996857 206.0 
512.184204 172.0 
512.309448 817.0 
512.370972 10496.0 
513.121399 205.0 
513.213257 343.0 
513.319092 25804.0 
513.381165 1314.0 
513.476807 106.0 
513.559265 82.0 
513.942139 138.0 
514.324097 4879.0 
514.707581 153.0 
515.265564 104.0 
515.307312 296.0 
516.304749 157.0 
516.822632 124.0 
519.588989 179.0 
520.313904 99.0 
520.554199 141.0 
521.273499 162.0 
521.727722 116.0 
521.839111 130.0 
522.753174 222.0 
522.936646 144.0 
522.978088 100.0 
523.178345 70.0 
523.274231 208.0 
524.571594 84.0 
524.758057 88.0 
524.804565 127.0 
525.112305 186.0 
525.208801 177.0 
525.640747 158.0 
525.774292 86.0 
525.815369 69.0 
525.987305 176.0 
526.11615 244.0 
526.182129 154.0 
526.27887 192.0 
526.382507 103.0 
526.691956 395.0 
526.846558 81.0 
526.933838 210.0 
526.988525 207.0 
527.062866 308.0 
527.229492 3234.0 
527.334656 328762.0 
527.470398 461.0 
527.507812 451.0 
527.560242 211.0 
527.683167 308.0 
527.728516 282.0 
527.799927 156.0 
527.861877 313.0 
527.955383 239.0 
528.039307 529.0 
528.102234 234.0 
528.201843 1255.0 
528.338989 66272.0 
528.417725 787.0 
528.498535 168.0 
528.641785 479.0 
528.671753 441.0 
528.743713 90.0 
528.794189 191.0 
529.022278 193.0 
529.065002 203.0 
529.231689 318.0 
529.276062 257.0 
529.340454 6801.0 
529.729675 129.0 
530.101013 117.0 
530.168579 175.0 
530.342773 219.0 
530.66687 81.0 
530.952942 111.0 
531.32489 104.0 
531.368408 153.0 
531.486816 131.0 
531.668518 137.0 
532.012817 186.0 
532.252197 84.0 
532.314514 106.0 
532.497681 145.0 
533.546204 121.0 
534.690979 95.0 
535.683777 107.0 
537.714844 114.0 
540.297424 144.0 
540.360046 810.0 
541.270325 137.0 
541.350098 3061.0 
542.368774 641.0 
543.367432 254.0 
543.633667 144.0 
548.35022 157.0 
548.591919 167.0 
549.34613 194.0 
549.961914 131.0 
550.3573 99.0 
551.105713 126.0 
554.609436 201.0 
556.366516 194.0 
556.855103 169.0 
558.387146 94.0 
558.864319 175.0 
559.805786 290.0 
560.796021 190.0 
561.678223 247.0 
563.727478 157.0 
564.770386 318.0 
565.583252 124.0 
566.938293 252.0 
567.489014 175.0 
567.69873 87.0 
571.339417 195.0 
572.709351 143.0 
573.47583 211.0 
573.752686 211.0 
581.847778 126.0 
582.372009 187.0 
583.312012 94.0 
583.426636 101.0 
585.479919 180.0 
585.568115 75.0 
585.688171 84.0 
586.644775 219.0 
593.076294 215.0 
594.308899 442.0 
594.417664 493.0 
595.288391 243.0 
597.27356 115.0 
597.425964 135.0 
598.069763 237.0 
598.919678 121.0 
599.912292 292.0 
600.013916 105.0 
603.605408 101.0 
607.856873 328.0 
611.579285 187.0 
612.230164 237.0 
612.423706 33572.0 
612.568604 148.0 
613.090759 81.0 
613.234131 108.0 
613.343933 244.0 
613.427063 9878.0 
614.427368 841.0 
614.497742 137.0 
614.884827 235.0 
616.849915 114.0 
616.973938 118.0 
618.916931 235.0 
621.133484 122.0 
622.308533 135.0 
622.415039 1753.0 
623.244202 94.0 
623.408386 472.0 
623.819092 266.0 
623.999756 280.0 
624.207275 123.0 
624.316772 66.0 
624.415344 83.0 
625.492737 164.0 
625.692322 175.0 
627.473267 212.0 
627.809265 242.0 
629.038818 67.0 
629.824646 167.0 
630.689209 83.0 
630.763306 83.0 
630.96106 128.0 
631.073669 111.0 
631.343018 113.0 
631.74646 139.0 
632.294983 68.0 
632.748718 233.0 
632.983276 119.0 
633.162842 107.0 
633.36438 74.0 
633.472534 78.0 
633.590454 66.0 
633.867493 100.0 
633.906982 123.0 
634.257751 105.0 
634.426941 126.0 
634.530457 111.0 
634.868469 133.0 
634.945679 163.0 
635.015747 140.0 
635.070862 128.0 
635.126343 217.0 
635.309021 132.0 
635.401062 209.0 
635.477783 146.0 
635.823059 148.0 
635.953491 138.0 
636.043396 178.0 
636.178528 93.0 
636.279358 297.0 
636.475464 111.0 
636.551575 243.0 
636.66272 310.0 
636.772339 220.0 
636.897217 73.0 
637.021057 272.0 
637.082825 166.0 
637.145447 186.0 
637.293457 246.0 
637.497986 145.0 
637.639526 287.0 
637.688538 332.0 
637.772095 115.0 
637.847473 339.0 
637.917603 101.0 
638.006592 232.0 
638.111755 305.0 
638.207031 249.0 
638.265686 293.0 
638.358948 351.0 
638.433289 284.0 
638.490051 350.0 
638.613586 540.0 
638.666931 352.0 
638.71051 609.0 
638.773193 446.0 
638.909851 166.0 
638.950317 336.0 
639.049316 330.0 
639.187378 491.0 
639.235901 343.0 
639.322937 591.0 
639.400635 469.0 
639.477417 291.0 
639.541321 512.0 
639.626404 751.0 
639.706909 1073.0 
639.791138 733.0 
639.85553 507.0 
639.92218 715.0 
639.979675 751.0 
640.015442 712.0 
640.068726 883.0 
640.188232 2255.0 
640.419189 1313468.0 
640.551514 1309.0 
640.714539 755.0 
640.75885 1317.0 
640.797791 1199.0 
640.886597 1034.0 
640.943115 559.0 
641.009277 384.0 
641.065247 1266.0 
641.129578 1350.0 
641.203125 1513.0 
641.256775 1346.0 
641.422546 346587.0 
641.532227 373.0 
641.594421 385.0 
641.65686 818.0 
641.722778 473.0 
641.763428 851.0 
641.837463 679.0 
641.976074 128.0 
642.042053 327.0 
642.143372 210.0 
642.19342 321.0 
642.246277 303.0 
642.321899 1112.0 
642.425232 28187.0 
642.53241 466.0 
642.671997 126.0 
642.726746 227.0 
642.791199 229.0 
642.968079 171.0 
643.137817 154.0 
643.274292 290.0 
643.34967 212.0 
643.422241 839.0 
643.504761 255.0 
643.561218 273.0 
643.716919 121.0 
643.760071 145.0 
643.83429 193.0 
643.918518 155.0 
643.968872 115.0 
644.076416 228.0 
644.182129 267.0 
644.340393 173.0 
644.400879 265.0 
644.496155 137.0 
644.613525 289.0 
644.710876 376.0 
644.764343 326.0 
644.803711 368.0 
644.936523 776.0 
645.041687 539.0 
645.120239 599.0 
645.179565 391.0 
645.221924 519.0 
645.283447 146.0 
645.327148 248.0 
645.447998 524.0 
645.525635 108.0 
645.588196 80.0 
645.668457 307.0 
645.795837 230.0 
645.844604 102.0 
645.961914 243.0 
646.068115 481.0 
646.127502 371.0 
646.166931 469.0 
646.284424 77.0 
646.354675 93.0 
646.645813 103.0 
646.85144 71.0 
647.010193 95.0 
647.324524 104.0 
647.362488 140.0 
647.489441 127.0 
647.69873 106.0 
648.081299 66.0 
648.441895 80.0 
648.521179 254.0 
648.623901 96.0 
648.760376 151.0 
648.858154 190.0 
649.0979 222.0 
650.462646 227.0 
651.013672 135.0 
651.379395 124.0 
651.606873 232.0 
651.720886 121.0 
652.362 101.0 
652.695557 80.0 
652.989014 91.0 
653.467407 111.0 
655.834045 127.0 
656.05957 166.0 
656.132263 197.0 
656.227112 83.0 
656.364868 231.0 
656.423401 189.0 
656.505981 166.0 
657.137817 107.0 
657.252563 196.0 
657.444031 28381.0 
657.555603 140.0 
657.732483 260.0 
657.930176 174.0 
658.054199 223.0 
658.181396 110.0 
658.222107 146.0 
658.270691 174.0 
658.430481 96443.0 
658.712341 160.0 
659.291931 759.0 
659.431274 22337.0 
659.6828 402.0 
659.897034 883.0 
660.374512 441.0 
660.434631 1269.0 
660.57843 122.0 
660.647461 154.0 
661.440491 197.0 
662.29834 126.0 
662.399841 617.0 
662.653809 128.0 
662.859802 216.0 
662.987305 156.0 
663.14093 112.0 
665.401428 111.0 
665.589294 85.0 
665.733459 111.0 
665.932068 120.0 
666.388672 73.0 
666.867126 82.0 
666.995728 73.0 
668.808777 127.0 
696.480347 98.0 
702.587402 81.0 
752.110779 74.0 
769.228333 162.0 
791.594421 150.0 
796.431519 196.0 
827.735779 88.0 
889.796204 94.0 
915.638855 173.0 
920.139954 98.0 
947.486084 225.0 
951.696533 109.0 
1000.876526 269.0 
1008.833008 189.0 
1014.378296 232.0 
1023.613403 122.0 
1059.208008 155.0 
1059.930786 187.0 
1061.602905 119.0 
1065.39978 199.0 
1121.299438 83.0 
1122.612671 84.0 
1123.655273 115.0 
1145.336792 81.0 
1158.20105 154.0 
1213.867676 80.0 
1215.686279 108.0 
1423.646973 215.0 
1427.632202 241.0 
1469.970825 362.0 
1477.202271 92.0 
1482.370972 310.0 
1487.401855 161.0 
1518.025269 201.0 
1528.942261 78.0 
1608.382568 74.0 
1624.057739 151.0 
1648.174927 170.0 
1654.096436 214.0 
1666.921753 197.0 
1712.241211 249.0 
1717.368774 183.0 
1734.795532 225.0 
1751.331787 200.0 
1753.178955 271.0 
1759.442139 329.0 
1761.483276 318.0 
1777.762817 292.0 
1780.073364 80.0 
1799.77417 160.0 
1803.992188 174.0 
1804.338745 318.0 
1808.179321 180.0 
1819.268188 178.0 
1821.192383 229.0 
1827.0177 220.0 
1844.294067 265.0 
1849.590698 295.0 
1864.671631 255.0 
1887.425171 253.0 
1889.299438 125.0 
1902.178955 261.0 
1903.442017 159.0 
1905.593506 335.0 
1906.458374 232.0 
1920.373413 196.0 
1926.830444 260.0 
1932.201904 217.0 
1948.481201 261.0 
1952.917603 131.0 
1982.472656 297.0 
1985.275269 94.0 
1987.178101 348.0 
1998.287476 324.0 
2002.965698 253.0 
2003.527588 228.0 
END IONS

BEGIN IONS
TITLE=Scan Number: 523
PEPMASS=662.39801
CHARGE=1+
MSLEVEL=2
FILENAME=A12_BA12_01_2844.mzXML
INSTRUMENT=ion trap
SCANS=523
SMILES=CC(C)[C@H]1OC(=O)[C@H](C(C)C)N(C)C(=O)[C@H](OC(=O)[C@H](C(C)C)N(C)C(=O)[C@H](OC(=O)[C@H](C(C)C)N(C)C1=O)C(C)C)C(C)C
INCHIKEY=MIZMDSVSLSIMSC-VYLWARHZSA-N
70.06472 380.0 
70.240822 150.0 
71.075394 303.0 
72.078735 571.0 
73.064125 169.0 
74.314926 142.0 
77.877975 334.0 
83.04908 2559.0 
83.084976 232.0 
84.052086 759.0 
84.082565 247.0 
86.020798 387.0 
86.096039 9202.0 
87.102905 831.0 
88.036087 116.0 
91.521553 112.0 
93.068748 222.0 
94.061043 196.0 
97.100555 335.0 
98.096298 953.0 
99.355064 131.0 
100.111771 8375.0 
101.049896 276.0 
101.118629 401.0 
102.054474 146.0 
102.954727 277.0 
108.077789 1624.0 
109.104309 176.0 
109.585693 90.0 
110.091339 238.0 
110.853371 250.0 
111.117004 520.0 
112.076775 198.0 
112.111374 402.0 
113.078659 143.0 
113.605156 150.0 
114.092743 306.0 
115.262581 114.0 
116.068718 312.0 
118.084404 181.0 
118.870544 107.0 
120.277405 86.0 
121.041191 218.0 
121.068703 504.0 
123.042847 9184.0 
123.085213 181.0 
123.118729 169.0 
124.042549 487.0 
125.093132 126.0 
126.031471 194.0 
126.056824 516.0 
126.085869 523.0 
126.129128 800.0 
127.037819 171.0 
129.055954 104.0 
130.050232 1058.0 
130.084396 558.0 
131.09024 171.0 
132.101624 397.0 
133.09729 189.0 
134.060898 379.0 
135.067169 133.0 
136.072708 255.0 
137.090073 212.0 
137.135803 225.0 
138.049911 164.0 
139.035156 536.0 
139.114532 171.0 
139.835236 129.0 
140.068527 1438.0 
140.101761 588.0 
140.1409 250.0 
140.259064 88.0 
141.02301 175.0 
141.053375 5938.0 
141.141525 216.0 
142.05336 484.0 
142.154602 166.0 
143.056564 192.0 
144.099411 490.0 
144.799988 273.0 
146.122879 174.0 
146.772934 188.0 
147.078445 887.0 
148.082687 301.0 
149.079559 173.0 
151.058533 163.0 
151.096664 210.0 
151.130219 151.0 
152.069611 789.0 
153.651276 309.0 
154.083923 4610.0 
154.122131 2415.0 
155.084122 147.0 
156.102676 167.0 
156.529831 65.0 
157.012543 138.0 
157.099594 182.0 
158.342636 77.0 
159.063431 250.0 
162.06868 195.0 
162.091721 1087.0 
162.595642 206.0 
163.09259 135.0 
164.064194 128.0 
164.108353 287.0 
165.159912 233.0 
166.083389 370.0 
167.095886 167.0 
167.397141 400.0 
168.035904 156.0 
168.058899 195.0 
168.100403 1747.0 
168.137985 13763.0 
169.044205 126.0 
169.141403 1667.0 
170.11734 74.0 
170.152786 338.0 
170.594086 63.0 
172.136658 264.0 
176.070404 498.0 
176.107452 175.0 
177.106445 260.0 
178.079575 280.0 
178.117111 506.0 
178.349152 391.0 
179.093674 124.0 
179.633926 101.0 
180.066666 124.0 
182.075638 224.0 
182.117661 4860.0 
182.152527 5399.0 
183.070175 564.0 
183.119644 581.0 
183.152771 712.0 
184.164276 177.0 
186.076279 176.0 
187.073715 166.0 
188.129929 190.0 
188.153351 257.0 
189.16394 136.0 
190.048538 235.0 
190.084091 3164.0 
190.120148 774.0 
191.087875 304.0 
191.125076 104.0 
191.348389 183.0 
192.111252 208.0 
192.137527 1727.0 
192.296326 84.0 
192.755386 318.0 
193.14241 237.0 
193.261185 77.0 
194.077332 357.0 
194.115189 128.0 
195.124405 411.0 
195.341949 123.0 
195.731339 151.0 
196.081787 189.0 
196.13269 24593.0 
196.411255 130.0 
196.692001 190.0 
197.135925 2767.0 
197.538773 147.0 
198.07695 159.0 
198.107498 152.0 
198.145889 544.0 
198.219009 129.0 
200.122162 545.0 
200.154175 492.0 
201.127777 174.0 
202.136185 196.0 
204.100021 8301.0 
205.10376 736.0 
205.143921 194.0 
206.104889 254.0 
206.150116 466.0 
206.524933 113.0 
207.090851 152.0 
207.156952 481.0 
208.093964 2893.0 
208.446274 150.0 
209.079773 1288.0 
209.133286 398.0 
210.043945 73.0 
210.07399 147.0 
210.147934 9935.0 
211.083405 206.0 
211.120697 172.0 
211.151123 1111.0 
212.126831 199.0 
212.15419 164.0 
212.202438 85.0 
213.624878 171.0 
214.142639 1514.0 
214.513885 71.0 
215.142975 448.0 
216.096924 139.0 
216.148148 94.0 
216.248306 175.0 
216.356918 140.0 
217.151123 116.0 
217.766922 127.0 
217.794479 98.0 
218.046661 205.0 
218.115585 52980.0 
218.35379 102.0 
218.701141 220.0 
218.749832 129.0 
219.118317 5200.0 
219.495911 106.0 
220.123032 1178.0 
220.407425 97.0 
220.5047 87.0 
220.871231 111.0 
221.124771 383.0 
222.06163 180.0 
222.109192 6593.0 
222.298584 75.0 
222.400192 127.0 
223.100113 2055.0 
223.520035 102.0 
224.099213 541.0 
224.120789 590.0 
224.203674 127.0 
224.910431 109.0 
226.101883 317.0 
228.163849 464.0 
228.972717 149.0 
229.161133 194.0 
229.318039 221.0 
229.617126 141.0 
230.167801 330.0 
231.770264 155.0 
232.06189 204.0 
232.130417 28433.0 
233.100601 87.0 
233.133438 3530.0 
233.723862 150.0 
234.144165 719.0 
234.734558 129.0 
235.1409 230.0 
235.560226 100.0 
235.776917 73.0 
235.951721 67.0 
235.972107 136.0 
236.024368 184.0 
236.126312 20778.0 
236.570572 97.0 
236.947021 278.0 
237.061813 122.0 
237.125961 3331.0 
237.207214 226.0 
238.053909 85.0 
238.115677 355.0 
238.138885 425.0 
238.487885 89.0 
238.765839 148.0 
239.115067 483.0 
239.616058 97.0 
240.124649 1611.0 
241.127563 206.0 
244.062622 147.0 
244.444443 155.0 
245.028 201.0 
245.702652 169.0 
246.145493 136.0 
246.583069 235.0 
248.66391 93.0 
250.109406 2297.0 
250.141205 9112.0 
250.783813 68.0 
251.109665 173.0 
251.14592 1605.0 
252.036209 174.0 
252.121826 1156.0 
252.160522 383.0 
252.196609 423.0 
252.60347 150.0 
253.127838 130.0 
253.195877 172.0 
253.57991 262.0 
253.869583 134.0 
254.136459 6230.0 
254.661392 113.0 
255.028305 145.0 
255.137253 281.0 
256.118317 212.0 
258.140594 108.0 
259.134888 81.0 
259.255493 163.0 
260.160492 160.0 
260.989197 214.0 
264.121124 2309.0 
265.123138 507.0 
266.129242 163.0 
266.515076 127.0 
267.110809 323.0 
268.073883 117.0 
268.151855 1906.0 
269.154724 113.0 
269.753052 95.0 
270.453064 164.0 
270.493378 98.0 
272.160095 138.0 
273.158569 768.0 
274.175385 719.0 
274.682404 203.0 
275.187195 122.0 
275.546295 290.0 
278.168274 972.0 
279.925323 167.0 
280.109314 525.0 
280.94281 209.0 
281.120941 174.0 
281.384796 126.0 
281.955475 105.0 
282.043579 156.0 
282.13266 321.0 
282.187195 272.0 
282.90567 127.0 
283.842041 67.0 
286.274963 116.0 
286.97522 250.0 
287.284119 232.0 
288.203979 152.0 
290.161102 159.0 
291.207153 173.0 
291.841248 99.0 
292.186981 1102.0 
292.27417 240.0 
293.141144 146.0 
293.187988 144.0 
294.133423 1333.0 
294.16925 564.0 
294.239014 343.0 
295.101959 114.0 
295.189575 184.0 
295.748383 88.0 
296.112762 222.0 
296.180359 997.0 
296.371002 85.0 
297.110565 147.0 
297.177368 147.0 
297.240662 122.0 
298.124054 471.0 
300.187531 122.0 
301.408142 286.0 
303.170319 245.0 
303.211792 182.0 
303.266846 2358.0 
304.161133 89.0 
304.271576 580.0 
304.68338 167.0 
305.212219 738.0 
306.201294 360.0 
306.338226 270.0 
307.38327 158.0 
308.079773 230.0 
308.148499 10828.0 
308.437469 152.0 
309.156464 1876.0 
310.12796 373.0 
310.207306 620.0 
310.621735 88.0 
311.12674 209.0 
316.156189 129.0 
316.202545 329.0 
318.35672 65.0 
319.610168 140.0 
320.182892 121.0 
320.243408 89.0 
321.176514 858.0 
321.2099 318.0 
321.265137 174.0 
321.475555 177.0 
322.042053 211.0 
322.163208 41545.0 
322.295319 203.0 
322.440216 125.0 
322.494354 121.0 
322.645508 89.0 
323.166809 5107.0 
324.040497 180.0 
324.100311 94.0 
324.17218 1196.0 
324.90033 145.0 
325.174194 173.0 
325.21521 108.0 
325.344849 146.0 
325.413574 177.0 
326.164795 1007.0 
326.338989 109.0 
326.853882 84.0 
327.118591 131.0 
327.161285 203.0 
329.181213 172.0 
329.665283 139.0 
331.280304 245.0 
331.318115 200.0 
332.753967 126.0 
333.179993 122.0 
333.644714 164.0 
333.822327 110.0 
334.229614 254.0 
334.266846 200.0 
334.489349 230.0 
334.897552 144.0 
334.951172 149.0 
335.194275 329.0 
335.567017 245.0 
335.640625 293.0 
335.739716 116.0 
335.948547 229.0 
336.009796 207.0 
336.090393 1065.0 
336.178955 129332.0 
336.265381 116.0 
336.338409 78.0 
336.403473 81.0 
336.460022 182.0 
336.637726 77.0 
336.723694 122.0 
336.843628 242.0 
337.025665 379.0 
337.132538 639.0 
337.182159 20014.0 
337.232544 106.0 
338.186401 3952.0 
338.264191 203.0 
338.510986 225.0 
338.884613 73.0 
339.198608 629.0 
339.470459 103.0 
339.642731 87.0 
339.930328 77.0 
340.11438 175.0 
340.174713 2634.0 
340.41861 282.0 
340.473083 114.0 
341.180359 497.0 
341.652557 140.0 
341.783051 195.0 
343.460571 295.0 
345.241364 187.0 
347.19223 212.0 
347.324158 202.0 
348.122162 122.0 
348.689484 108.0 
349.163452 94.0 
349.21405 1007.0 
349.905945 120.0 
350.078278 506.0 
350.194763 53123.0 
350.35968 102.0 
350.807617 83.0 
350.862213 95.0 
351.147186 101.0 
351.197662 8015.0 
351.771088 135.0 
351.942627 181.0 
352.206238 1197.0 
352.389862 214.0 
352.49469 145.0 
353.004974 86.0 
353.117828 103.0 
353.205536 590.0 
353.945038 205.0 
354.07547 173.0 
354.190369 13946.0 
354.56308 152.0 
354.856506 100.0 
355.184845 961.0 
355.382233 199.0 
355.559418 104.0 
355.956451 144.0 
356.134216 64.0 
356.19873 355.0 
356.679169 219.0 
357.62616 231.0 
359.307281 190.0 
360.417358 245.0 
361.212158 180.0 
361.294617 122.0 
363.186371 705.0 
363.223602 135.0 
363.379181 126.0 
363.414215 97.0 
364.202362 364.0 
365.215729 82.0 
366.151794 160.0 
366.56485 99.0 
367.1492 68.0 
367.224548 1499.0 
367.537445 93.0 
368.13504 173.0 
368.212585 3535.0 
369.211456 957.0 
370.607605 183.0 
370.990753 218.0 
372.366058 252.0 
372.933594 309.0 
373.174377 156.0 
375.188965 206.0 
375.222504 184.0 
376.241119 226.0 
377.206665 1009.0 
378.207092 502.0 
378.665741 208.0 
379.422607 175.0 
381.254242 838.0 
381.718872 67.0 
382.156799 64.0 
382.248657 336.0 
383.109039 164.0 
384.327026 208.0 
387.877899 94.0 
388.748138 136.0 
389.247101 606.0 
389.830444 138.0 
390.251984 172.0 
391.249939 97.0 
391.483368 144.0 
392.245758 305.0 
393.203888 229.0 
395.263031 138.0 
395.407715 127.0 
396.538483 115.0 
397.162537 224.0 
399.389557 180.0 
402.237305 179.0 
402.34021 95.0 
402.6008 218.0 
403.009705 195.0 
403.247925 757.0 
403.733856 67.0 
404.423187 170.0 
405.201569 441.0 
405.262909 654.0 
406.255951 176.0 
406.337128 168.0 
407.243073 140.0 
407.392029 81.0 
408.194092 260.0 
409.196716 198.0 
413.479645 97.0 
415.756989 241.0 
416.269745 115.0 
419.234802 131.0 
420.236023 103.0 
420.302032 132.0 
420.466858 288.0 
421.231964 311.0 
421.267761 242.0 
422.219513 266.0 
428.291504 243.0 
428.898102 93.0 
430.649353 122.0 
431.05835 234.0 
431.17157 69.0 
431.268402 228.0 
431.352783 135.0 
431.861267 172.0 
432.071777 300.0 
432.363678 219.0 
432.487915 139.0 
433.224823 295.0 
434.213593 96.0 
434.247681 155.0 
435.175079 109.0 
435.248047 7008.0 
436.175964 175.0 
436.250244 1484.0 
437.246887 395.0 
438.85611 305.0 
440.18573 93.0 
441.808105 261.0 
441.887726 90.0 
442.961029 149.0 
443.899323 129.0 
445.306213 125.0 
445.673737 241.0 
446.303772 152.0 
447.250763 484.0 
447.364258 107.0 
447.707275 72.0 
448.41214 218.0 
449.129395 150.0 
449.263641 16635.0 
449.71814 171.0 
450.006989 84.0 
450.265839 3249.0 
450.328674 91.0 
451.278656 675.0 
453.223877 319.0 
453.258179 740.0 
454.272766 126.0 
455.3974 156.0 
456.626984 209.0 
456.864777 129.0 
457.931641 236.0 
459.858124 153.0 
460.28894 225.0 
461.190216 78.0 
462.23053 94.0 
462.307922 119.0 
463.030273 169.0 
463.097687 145.0 
463.24649 3704.0 
463.277832 3927.0 
464.037811 208.0 
464.245026 1247.0 
464.270905 1332.0 
464.928802 81.0 
465.25174 905.0 
465.297852 230.0 
467.272552 1073.0 
468.259491 430.0 
468.440552 77.0 
468.546326 333.0 
469.631744 178.0 
470.615723 87.0 
470.741608 117.0 
472.633148 88.0 
475.220703 150.0 
475.722961 103.0 
476.279694 118.0 
477.260956 2044.0 
478.263275 461.0 
478.81665 166.0 
479.063934 248.0 
479.231384 499.0 
480.141479 79.0 
480.26767 165.0 
480.688477 221.0 
481.28476 755.0 
481.609222 65.0 
482.013397 199.0 
483.068909 139.0 
484.269562 174.0 
485.330872 247.0 
486.826599 152.0 
487.166382 263.0 
487.549652 160.0 
487.765198 84.0 
488.31665 352.0 
488.634125 165.0 
489.294495 261.0 
489.350006 178.0 
490.131866 233.0 
490.291321 357.0 
491.253876 276.0 
491.317047 638.0 
491.921631 150.0 
493.250977 304.0 
495.318787 262.0 
502.761261 78.0 
503.613098 282.0 
505.336365 272.0 
505.743439 143.0 
506.251862 230.0 
507.292603 115.0 
507.875641 116.0 
510.349152 250.0 
511.216125 121.0 
511.337006 328.0 
511.423035 170.0 
511.507996 166.0 
514.638245 209.0 
515.266846 280.0 
515.389526 138.0 
516.269226 121.0 
516.390503 277.0 
516.442566 133.0 
517.286011 146.0 
517.342529 424.0 
519.344421 191.0 
520.303345 236.0 
521.320862 263.0 
522.46991 208.0 
524.873596 99.0 
524.95105 166.0 
526.533386 217.0 
529.342102 121.0 
529.90509 141.0 
530.349182 308.0 
531.304871 116.0 
531.344849 313.0 
531.396973 220.0 
531.833435 136.0 
532.773865 135.0 
533.288696 331.0 
533.614197 126.0 
534.340881 74.0 
534.3797 162.0 
535.106628 207.0 
535.302368 17347.0 
536.173828 78.0 
536.304688 4442.0 
537.299744 254.0 
542.275696 78.0 
544.354187 198.0 
545.274109 181.0 
546.232056 189.0 
546.412903 186.0 
546.952881 210.0 
547.333496 76.0 
548.199951 199.0 
548.248535 389.0 
548.333496 1946.0 
548.920349 476.0 
549.086609 491.0 
549.155884 255.0 
549.315674 55478.0 
549.477234 65.0 
549.549072 122.0 
549.976562 246.0 
550.071838 188.0 
550.110352 126.0 
550.206482 164.0 
550.321228 14323.0 
551.046997 93.0 
551.091675 146.0 
551.148682 327.0 
551.252014 103.0 
551.32135 2837.0 
552.45575 66.0 
553.053528 75.0 
553.631653 157.0 
553.706726 108.0 
553.854736 98.0 
554.17688 99.0 
554.333374 97.0 
555.115906 119.0 
555.313293 116.0 
558.788391 69.0 
560.198914 232.0 
560.337097 235.0 
561.359253 156.0 
562.012634 251.0 
562.260986 130.0 
562.311951 693.0 
562.359314 2366.0 
563.251099 114.0 
563.334351 13797.0 
563.72168 271.0 
563.866272 191.0 
563.972839 202.0 
564.028381 88.0 
564.199341 191.0 
564.244141 150.0 
564.341309 2435.0 
564.428528 242.0 
565.335144 385.0 
565.648743 418.0 
566.72583 153.0 
570.694214 115.0 
571.391357 113.0 
571.552063 227.0 
571.602356 285.0 
571.697388 200.0 
572.825684 175.0 
574.356689 156.0 
575.275391 111.0 
576.362793 628.0 
577.349854 3040.0 
577.539551 90.0 
578.170166 161.0 
578.271484 130.0 
578.348206 1047.0 
579.178406 203.0 
579.359436 105.0 
579.415833 113.0 
580.161072 150.0 
580.357605 166.0 
580.711243 184.0 
582.571228 249.0 
583.305298 118.0 
583.854553 206.0 
585.052185 130.0 
586.718384 129.0 
587.910889 140.0 
588.014771 259.0 
588.357849 174.0 
589.349915 148.0 
589.439697 171.0 
590.175232 185.0 
590.339539 1022.0 
591.349854 564.0 
592.27533 103.0 
593.623779 175.0 
594.520264 122.0 
596.156128 210.0 
597.474182 140.0 
598.374939 138.0 
600.191406 185.0 
602.631531 202.0 
604.015869 103.0 
604.31427 650.0 
604.773132 183.0 
604.88739 172.0 
605.310791 145.0 
606.327942 276.0 
607.34198 157.0 
608.672668 164.0 
610.553528 93.0 
611.042175 265.0 
613.971863 411.0 
615.72699 224.0 
616.431152 373.0 
616.709167 112.0 
618.344421 153.0 
618.402222 738.0 
618.60968 92.0 
618.95929 81.0 
619.10199 145.0 
619.163696 102.0 
619.227783 132.0 
619.417175 1170.0 
619.706848 173.0 
619.795227 166.0 
619.906982 162.0 
620.337463 175.0 
620.425659 119.0 
620.531677 201.0 
620.608887 78.0 
620.851135 211.0 
620.919983 136.0 
621.205933 207.0 
622.423279 127.0 
624.986511 224.0 
627.875793 84.0 
627.99707 236.0 
629.470215 103.0 
631.799316 75.0 
632.303711 91.0 
632.356995 817.0 
632.916992 255.0 
633.047302 242.0 
633.319153 199.0 
634.418396 1106.0 
634.55481 167.0 
634.705139 115.0 
635.416748 238.0 
637.088928 152.0 
638.309387 248.0 
638.382812 254.0 
638.773804 140.0 
640.799316 214.0 
642.434509 123.0 
643.432007 1122.0 
644.256226 136.0 
644.375793 112.0 
644.43396 950.0 
645.824646 87.0 
646.029419 104.0 
646.377991 444.0 
646.692505 287.0 
646.795959 187.0 
646.861267 155.0 
646.924866 211.0 
646.990479 131.0 
647.17395 350.0 
647.761353 548.0 
648.014709 88.0 
648.243408 148.0 
648.345703 104.0 
648.424133 149.0 
648.642334 272.0 
648.726013 126.0 
649.322571 108.0 
649.94165 139.0 
650.052551 262.0 
650.219421 85.0 
650.388245 84.0 
650.822327 136.0 
651.080994 111.0 
651.258728 77.0 
652.027771 207.0 
652.108826 130.0 
652.207092 236.0 
652.406738 155.0 
652.918823 113.0 
653.318054 133.0 
653.419739 183.0 
653.825317 354.0 
653.930664 126.0 
654.038696 337.0 
654.133789 99.0 
654.258484 110.0 
655.006226 95.0 
655.127747 153.0 
655.206665 175.0 
655.274353 121.0 
655.399109 164.0 
655.687317 171.0 
656.072021 92.0 
656.124329 227.0 
656.261597 232.0 
656.348389 93.0 
656.433899 312.0 
656.720947 213.0 
656.829834 227.0 
656.906067 83.0 
656.984314 154.0 
657.098694 111.0 
657.210815 130.0 
657.297729 164.0 
657.346191 110.0 
657.432007 115.0 
657.473145 210.0 
657.557434 110.0 
657.620789 131.0 
657.703003 378.0 
657.829468 212.0 
657.915649 254.0 
657.960083 302.0 
658.133057 234.0 
658.203552 157.0 
658.24469 117.0 
658.35968 110.0 
658.430176 87.0 
658.499756 495.0 
658.598938 215.0 
658.635864 300.0 
658.746765 260.0 
658.814209 360.0 
659.059387 102.0 
659.245117 274.0 
659.345886 551.0 
659.435791 161.0 
659.510132 142.0 
659.625183 96.0 
659.668945 141.0 
659.817505 214.0 
659.927734 502.0 
660.033081 210.0 
660.180725 779.0 
660.283447 262.0 
660.406555 137.0 
660.473083 733.0 
660.656738 503.0 
660.807373 482.0 
660.858948 458.0 
660.903503 295.0 
660.979431 292.0 
661.060608 628.0 
661.148315 440.0 
661.189026 452.0 
661.256653 624.0 
661.371033 1071.0 
661.446594 1502.0 
661.562134 444.0 
661.63916 729.0 
661.734802 1025.0 
661.787781 836.0 
661.850281 750.0 
661.901123 1470.0 
662.068176 2509.0 
662.137756 3146.0 
662.400879 1765152.0 
662.538696 1493.0 
662.714294 1723.0 
662.757019 1643.0 
662.841492 1409.0 
662.9021 541.0 
662.977051 1183.0 
663.079529 885.0 
663.129822 1454.0 
663.193604 2068.0 
663.40448 537128.0 
663.539368 755.0 
663.598633 908.0 
663.65802 749.0 
663.697937 724.0 
663.763855 560.0 
663.837646 660.0 
663.896729 708.0 
663.967834 745.0 
664.067688 923.0 
664.157776 399.0 
664.220032 725.0 
664.26886 898.0 
664.406555 61518.0 
664.561157 417.0 
664.632812 480.0 
664.699097 466.0 
664.791199 522.0 
664.862793 348.0 
664.932495 359.0 
665.048828 313.0 
665.092407 243.0 
665.153442 346.0 
665.222961 444.0 
665.306458 357.0 
665.364014 370.0 
665.406616 1817.0 
665.622375 413.0 
665.706177 189.0 
665.77301 138.0 
665.910583 280.0 
665.996277 229.0 
666.088257 718.0 
666.194336 322.0 
666.273804 114.0 
666.359985 448.0 
666.408081 586.0 
666.489929 264.0 
666.557495 317.0 
666.65094 553.0 
666.749756 417.0 
666.795349 1093.0 
666.940552 681.0 
666.994202 592.0 
667.037048 718.0 
667.083923 662.0 
667.140076 848.0 
667.199219 909.0 
667.303284 635.0 
667.405457 127.0 
667.467163 466.0 
667.575989 210.0 
667.647705 242.0 
667.696472 142.0 
667.808899 133.0 
667.868774 335.0 
668.033142 319.0 
668.140747 348.0 
668.204956 161.0 
668.250671 383.0 
668.345764 324.0 
668.643433 174.0 
668.910522 160.0 
669.591248 145.0 
669.73053 66.0 
669.838745 209.0 
670.748291 128.0 
670.920959 194.0 
671.437134 186.0 
672.167114 73.0 
672.356323 92.0 
672.471802 91.0 
672.696289 143.0 
676.360107 93.0 
679.251648 143.0 
679.554749 269.0 
679.719421 258.0 
680.0849 108.0 
680.534119 118.0 
681.521362 115.0 
681.609314 97.0 
681.712524 97.0 
683.221252 75.0 
686.297241 98.0 
688.343262 128.0 
688.770874 145.0 
689.28894 80.0 
689.669861 124.0 
690.577637 158.0 
693.478699 112.0 
702.598206 73.0 
708.530762 83.0 
708.991516 84.0 
730.972351 124.0 
740.129517 125.0 
740.252441 90.0 
748.851501 115.0 
749.736755 73.0 
816.108643 163.0 
822.763489 183.0 
921.830261 108.0 
948.159485 249.0 
949.169006 84.0 
952.14325 82.0 
955.109741 82.0 
956.866333 104.0 
966.105408 115.0 
974.624756 246.0 
997.833496 141.0 
999.410339 84.0 
1007.776611 129.0 
1010.128845 102.0 
1035.04895 273.0 
1075.868652 170.0 
1095.048218 285.0 
1100.991577 340.0 
1104.979492 212.0 
1107.088989 113.0 
1108.462646 252.0 
1125.349976 137.0 
1130.770142 111.0 
1436.56958 83.0 
1512.089478 257.0 
1597.036011 183.0 
1791.68042 217.0 
1873.631958 185.0 
1937.9021 113.0 
END IONS

BEGIN IONS
TITLE=Scan Number: 526
PEPMASS=702.44202
CHARGE=1+
MSLEVEL=2
FILENAME=A12_BA12_01_2844.mzXML
INSTRUMENT=ion trap
SCANS=526
SMILES=CC(CC(O)C(O)C(C)(C)O)C1CCC2(C)C3CCC4C5(CC35CCC12C)C(O)CC(O)C4(C)C(=O)OC6OC(CO)C(O)C(O)C6O
INCHIKEY=RCCBGOMNZWYBTJ-UHFFFAOYSA-N
71.767548 88.0 
73.027435 275.0 
73.814865 197.0 
79.030991 215.0 
81.028046 256.0 
81.067909 407.0 
82.073189 270.0 
83.08123 431.0 
85.02774 1063.0 
85.417053 215.0 
86.028748 204.0 
86.701721 122.0 
86.751411 222.0 
89.355011 294.0 
89.511612 315.0 
91.039047 492.0 
91.054565 420.0 
93.069237 960.0 
95.049477 112.0 
95.08728 831.0 
96.035217 160.0 
96.087593 117.0 
97.028275 616.0 
97.065781 593.0 
98.018921 223.0 
99.045792 335.0 
100.045052 101.0 
101.068115 250.0 
104.060577 143.0 
105.046066 390.0 
105.06916 2639.0 
105.727036 220.0 
106.071976 673.0 
107.085587 5223.0 
107.226562 318.0 
108.088669 223.0 
109.080711 187.0 
109.100655 2023.0 
109.207886 300.0 
109.387611 171.0 
111.05809 154.0 
111.079445 514.0 
115.696251 123.0 
117.070351 793.0 
119.0839 1774.0 
120.089027 507.0 
121.062103 390.0 
121.102524 7120.0 
122.490921 226.0 
123.036568 156.0 
123.097298 205.0 
123.118095 2119.0 
124.118103 424.0 
125.094765 552.0 
125.129211 203.0 
127.039146 1260.0 
129.062317 363.0 
131.085449 3441.0 
132.091751 298.0 
132.132889 346.0 
133.060074 82.0 
133.101608 2905.0 
134.10022 289.0 
135.083435 269.0 
135.115906 3025.0 
136.119934 817.0 
137.095596 408.0 
137.131271 1163.0 
143.085373 2899.0 
144.050797 113.0 
144.095276 446.0 
145.049469 2397.0 
145.102264 5948.0 
146.051468 376.0 
146.104599 465.0 
147.116974 5397.0 
148.120773 454.0 
149.052246 283.0 
149.095398 501.0 
149.133118 7114.0 
149.450531 87.0 
150.136398 718.0 
151.08017 322.0 
151.113235 646.0 
151.150192 323.0 
152.114792 340.0 
152.67572 284.0 
153.128876 896.0 
154.952759 131.0 
155.085663 474.0 
157.011017 361.0 
157.100983 1484.0 
158.09729 186.0 
159.116425 4761.0 
160.027084 293.0 
160.120041 649.0 
161.093842 673.0 
161.132278 3837.0 
161.463486 91.0 
161.820602 348.0 
162.076431 844.0 
162.134995 175.0 
163.054657 92.0 
163.07634 521.0 
163.110641 661.0 
163.147171 1138.0 
164.114868 123.0 
164.15535 182.0 
165.020447 207.0 
165.051498 178.0 
165.102585 387.0 
165.125656 908.0 
166.169022 277.0 
167.138046 168.0 
169.101501 1715.0 
170.107315 304.0 
171.117065 3074.0 
172.118469 842.0 
172.740021 127.0 
173.102142 362.0 
173.133148 2503.0 
174.132858 575.0 
175.113297 1407.0 
175.148712 1813.0 
176.115372 234.0 
176.152298 823.0 
177.087006 106.0 
177.125778 843.0 
177.163803 211.0 
178.111847 114.0 
178.167572 182.0 
179.068741 96.0 
179.106995 164.0 
179.137604 726.0 
179.334732 91.0 
179.95311 95.0 
180.085342 1552.0 
180.151901 111.0 
180.34053 81.0 
181.101044 580.0 
183.049957 255.0 
183.117905 797.0 
184.123123 451.0 
185.097656 499.0 
185.132309 3048.0 
185.905365 171.0 
186.133835 401.0 
187.112076 596.0 
187.146942 2124.0 
188.114365 245.0 
188.15242 245.0 
189.018509 140.0 
189.126282 1204.0 
189.162643 2747.0 
190.138474 273.0 
190.165512 274.0 
191.112274 741.0 
191.142136 452.0 
191.17984 389.0 
193.119324 246.0 
193.153687 330.0 
195.088455 251.0 
195.108261 415.0 
196.117279 338.0 
197.08905 350.0 
197.131851 1212.0 
198.135498 258.0 
199.07135 138.0 
199.112595 166.0 
199.149689 2878.0 
200.151382 700.0 
201.129822 856.0 
201.165344 744.0 
202.125763 187.0 
202.169891 585.0 
203.108612 420.0 
203.140244 334.0 
203.180161 256.0 
203.966492 96.0 
205.123886 817.0 
205.15683 286.0 
206.128525 233.0 
207.091599 183.0 
207.138428 371.0 
207.175568 425.0 
208.180511 188.0 
209.124954 860.0 
210.630569 91.0 
210.714294 180.0 
211.124954 181.0 
211.148071 585.0 
212.084381 116.0 
213.086014 182.0 
213.114395 169.0 
213.161255 680.0 
214.166336 131.0 
215.106323 665.0 
215.141571 324.0 
215.18013 740.0 
216.115936 337.0 
216.179123 157.0 
217.122009 2350.0 
217.197067 155.0 
219.099777 110.0 
219.138275 509.0 
219.175125 960.0 
220.174896 209.0 
221.156265 150.0 
222.155823 128.0 
223.072235 154.0 
223.110641 139.0 
223.147507 532.0 
224.114838 254.0 
225.015732 173.0 
225.118683 128.0 
225.163116 480.0 
226.167877 449.0 
227.146896 1139.0 
227.179672 692.0 
228.151352 258.0 
229.103058 128.0 
229.161591 103.0 
229.197266 193.0 
231.139313 3577.0 
231.177811 281.0 
233.141068 506.0 
235.136948 2660.0 
236.13324 252.0 
237.169601 286.0 
237.848312 93.0 
239.148163 397.0 
239.176895 1129.0 
241.121094 200.0 
241.157455 272.0 
241.20871 409.0 
241.43248 104.0 
241.469116 93.0 
243.134232 578.0 
243.210846 106.0 
244.13446 146.0 
244.171829 145.0 
244.209351 160.0 
245.154999 1674.0 
247.138351 248.0 
248.17572 165.0 
249.146851 499.0 
249.186127 225.0 
250.154953 353.0 
251.182098 711.0 
252.192108 305.0 
253.194275 488.0 
254.193268 266.0 
255.202362 127.0 
256.143311 171.0 
257.195343 97.0 
257.230347 123.0 
259.202972 98.0 
261.113403 212.0 
261.147919 196.0 
262.227661 262.0 
263.138794 174.0 
265.156921 167.0 
265.201019 89.0 
266.166016 194.0 
266.219391 238.0 
267.203186 181.0 
268.212463 198.0 
269.154785 243.0 
269.201782 220.0 
271.132355 211.0 
271.165558 174.0 
273.150085 115.0 
273.184357 338.0 
275.177826 384.0 
275.560547 158.0 
276.176666 389.0 
277.197052 153.0 
279.174438 184.0 
280.16922 193.0 
280.213898 375.0 
281.224731 298.0 
282.776398 252.0 
283.211914 162.0 
284.094055 170.0 
285.185822 366.0 
287.165558 317.0 
287.200287 179.0 
288.153595 165.0 
288.24173 235.0 
291.21698 177.0 
293.227936 309.0 
295.259369 270.0 
297.189117 546.0 
297.221375 399.0 
297.262665 154.0 
298.192963 135.0 
299.204071 190.0 
300.204315 127.0 
300.231567 134.0 
301.168518 254.0 
301.25647 288.0 
303.177338 223.0 
303.233429 120.0 
304.212769 102.0 
305.181519 131.0 
305.229309 156.0 
307.248413 361.0 
308.246918 698.0 
309.187988 161.0 
309.223755 231.0 
309.257385 1154.0 
310.269501 448.0 
315.193878 173.0 
315.243011 431.0 
317.251984 366.0 
317.849976 204.0 
318.246704 344.0 
321.216156 166.0 
321.265717 186.0 
322.220245 140.0 
323.238617 546.0 
324.218018 222.0 
325.215332 525.0 
325.248779 925.0 
327.167236 241.0 
327.241943 451.0 
328.243225 81.0 
329.219421 167.0 
329.258911 171.0 
331.178925 99.0 
331.255676 277.0 
333.25708 1381.0 
334.267761 421.0 
335.236145 856.0 
335.274475 1524.0 
337.219147 129.0 
339.268311 177.0 
339.468994 222.0 
341.203918 207.0 
341.246918 170.0 
342.283234 128.0 
343.227173 541.0 
343.263275 177.0 
346.269073 166.0 
347.227173 157.0 
347.270538 129.0 
349.25238 226.0 
350.258606 114.0 
351.269348 6834.0 
352.228363 199.0 
352.276245 1357.0 
353.133148 120.0 
353.248383 3680.0 
353.280151 1204.0 
354.0047 97.0 
354.210907 137.0 
354.244232 357.0 
354.279694 199.0 
355.224762 183.0 
355.275604 197.0 
357.224243 226.0 
359.503143 199.0 
361.251984 906.0 
362.225952 328.0 
362.259064 375.0 
365.519287 103.0 
367.263062 101.0 
368.305267 151.0 
369.20108 150.0 
369.27832 4031.0 
370.284698 755.0 
371.191254 138.0 
371.26004 2880.0 
372.005096 133.0 
372.26474 900.0 
372.627838 114.0 
373.278259 176.0 
377.244537 226.0 
378.246765 122.0 
378.615356 100.0 
379.145996 141.0 
379.221802 775.0 
379.264374 7504.0 
380.269165 2139.0 
381.259491 214.0 
383.289764 109.0 
384.281219 97.0 
385.276794 470.0 
386.284119 93.0 
387.278839 403.0 
391.256775 188.0 
392.001038 287.0 
393.269775 232.0 
395.268738 383.0 
395.750854 121.0 
395.992493 104.0 
396.809784 96.0 
396.973297 134.0 
397.275055 27973.0 
397.470886 95.0 
397.895203 98.0 
398.279602 4090.0 
398.840271 93.0 
399.282501 270.0 
402.307404 136.0 
405.312347 1681.0 
406.31604 533.0 
407.328369 430.0 
408.085388 245.0 
408.326691 150.0 
412.283691 234.0 
413.275208 404.0 
414.059662 162.0 
415.197266 418.0 
415.285065 18304.0 
415.566772 137.0 
416.287079 4801.0 
417.819336 95.0 
418.23114 149.0 
421.27652 102.0 
422.839386 252.0 
423.325592 2785.0 
424.325623 1068.0 
424.890167 152.0 
425.345062 347.0 
426.362061 218.0 
429.303528 121.0 
433.260223 141.0 
433.310791 1074.0 
438.779236 108.0 
439.488159 110.0 
440.536469 109.0 
441.34079 658.0 
442.335754 125.0 
451.321533 5885.0 
452.327606 1199.0 
453.329956 495.0 
455.159821 135.0 
468.387573 166.0 
469.246338 179.0 
469.332123 5324.0 
470.334778 1466.0 
487.279175 120.0 
487.339111 3343.0 
488.344452 982.0 
494.950348 106.0 
505.162933 193.0 
505.358398 1094.0 
513.311829 104.0 
515.293884 142.0 
523.364807 127.0 
533.317932 520.0 
602.382202 106.0 
613.366882 85.0 
614.37085 154.0 
631.375488 296.0 
658.336365 112.0 
667.393738 113.0 
684.365112 129.0 
684.434998 199.0 
702.44342 3445.0 
703.441956 693.0 
707.144775 127.0 
761.950073 73.0 
1182.531494 151.0 
1211.027466 172.0 
1980.41394 181.0 
END IONS

BEGIN IONS
TITLE=Scan Number: 527
PEPMASS=743.27502
CHARGE=1+
MSLEVEL=2
FILENAME=A12_BA12_01_2844.mzXML
INSTRUMENT=ion trap
SCANS=527
SMILES=COC1=CC(=CC(OC)=C1O[C@@H]2O[C@H](CO)[C@@H](O)[C@H](O)[C@H]2O)[C@H]3OC[C@H]4[C@@H]3CO[C@@H]4C5=CC(OC)=C(O[C@@H]6O[C@H](CO)[C@@H](O)[C@H](O)[C@H]6O)C(OC)=C5
INCHIKEY=FFDULTAFAQRACT-XKBSQSBASA-N
79.05291 147.0 
81.033752 313.0 
85.028557 348.0 
91.039223 207.0 
93.031822 288.0 
99.042885 121.0 
107.049889 136.0 
110.432472 307.0 
117.069992 213.0 
119.089149 252.0 
129.067474 160.0 
131.895752 189.0 
137.059052 220.0 
140.038849 102.0 
142.123734 87.0 
145.063232 1176.0 
151.036331 154.0 
155.057648 204.0 
157.070877 206.0 
159.081421 477.0 
161.043869 169.0 
167.068924 1673.0 
167.269348 97.0 
168.064651 214.0 
169.075897 151.0 
170.99585 195.0 
173.06131 1940.0 
174.060776 218.0 
175.08168 161.0 
183.034088 182.0 
187.074127 304.0 
189.091354 153.0 
190.065231 1589.0 
191.070374 112.0 
197.095947 146.0 
201.006775 132.0 
203.069717 316.0 
204.072876 200.0 
205.08577 2077.0 
209.085846 206.0 
211.095566 108.0 
217.084946 795.0 
218.083755 88.0 
219.073883 182.0 
219.177521 129.0 
220.106079 131.0 
223.097534 248.0 
226.16185 324.0 
229.084625 106.0 
231.096649 116.0 
234.101242 216.0 
235.069336 142.0 
235.100555 620.0 
236.106369 394.0 
247.071869 240.0 
247.100693 157.0 
248.102753 222.0 
264.718567 93.0 
265.110321 2133.0 
265.190216 85.0 
266.109039 231.0 
267.107666 95.0 
270.088684 103.0 
271.091431 125.0 
282.042358 99.0 
300.103668 254.0 
308.108643 98.0 
308.144958 138.0 
315.076324 133.0 
316.09314 354.0 
324.156769 141.0 
330.103271 91.0 
331.111023 175.0 
337.116547 152.0 
339.079498 142.0 
339.12146 126.0 
340.126984 177.0 
343.085297 152.0 
343.113129 164.0 
347.161621 125.0 
351.123505 110.0 
352.104645 143.0 
353.099304 125.0 
354.082611 153.0 
358.138123 115.0 
369.138 288.0 
371.11496 154.0 
383.14975 1033.0 
384.159882 157.0 
397.142822 129.0 
398.188324 264.0 
401.153168 918.0 
402.156464 287.0 
413.210663 121.0 
415.137756 150.0 
419.173523 154.0 
420.185638 133.0 
424.687103 204.0 
470.668732 219.0 
498.176239 185.0 
726.248474 164.0 
END IONS

BEGIN IONS
TITLE=Scan Number: 528
PEPMASS=760.302
CHARGE=1+
MSLEVEL=2
FILENAME=A12_BA12_01_2844.mzXML
INSTRUMENT=ion trap
SCANS=528
SMILES=COC1=CC(=CC(OC)=C1O[C@@H]2O[C@H](CO)[C@@H](O)[C@H](O)[C@H]2O)[C@H]3OC[C@H]4[C@@H]3CO[C@@H]4C5=CC(OC)=C(O[C@@H]6O[C@H](CO)[C@@H](O)[C@H](O)[C@H]6O)C(OC)=C5
INCHIKEY=FFDULTAFAQRACT-XKBSQSBASA-N
81.009827 157.0 
81.032776 1589.0 
81.710732 198.0 
82.03511 195.0 
84.423805 170.0 
85.028366 1192.0 
86.030235 213.0 
87.043159 365.0 
87.138466 159.0 
87.662155 150.0 
88.054405 137.0 
95.049126 151.0 
97.02887 1148.0 
98.97496 167.0 
99.043472 527.0 
100.943497 180.0 
101.130089 199.0 
103.628868 136.0 
105.068588 192.0 
107.049843 1207.0 
108.049004 110.0 
109.033623 482.0 
113.022842 236.0 
117.068039 867.0 
118.07386 423.0 
122.186455 245.0 
123.044121 584.0 
124.052444 845.0 
125.057503 148.0 
127.039894 653.0 
128.06395 178.0 
129.066391 627.0 
131.048615 404.0 
131.083939 645.0 
132.055954 200.0 
133.063599 170.0 
139.075745 341.0 
141.06781 195.0 
142.074783 205.0 
143.051315 174.0 
145.064575 5740.0 
146.069702 509.0 
147.0177 253.0 
147.048325 219.0 
147.084961 590.0 
149.059433 612.0 
151.035645 173.0 
151.109955 132.0 
152.044571 251.0 
153.054169 337.0 
153.073822 208.0 
154.067139 106.0 
155.069733 1009.0 
156.068314 154.0 
157.062469 330.0 
158.074127 323.0 
159.059555 254.0 
159.080048 1617.0 
160.081635 116.0 
161.05925 938.0 
162.074661 311.0 
163.02446 217.0 
163.040283 297.0 
163.061539 338.0 
165.052231 141.0 
165.263443 115.0 
166.051056 243.0 
166.620331 356.0 
167.070221 21807.0 
168.041855 158.0 
168.073059 1822.0 
169.067978 373.0 
170.073242 191.0 
171.054871 372.0 
172.053146 503.0 
173.059601 21545.0 
174.062119 2079.0 
174.765274 113.0 
175.073166 1291.0 
176.049683 476.0 
177.018143 241.0 
177.050568 463.0 
178.062943 172.0 
179.025589 198.0 
180.084351 1545.0 
181.042816 107.0 
181.08783 392.0 
183.06752 1101.0 
184.055115 440.0 
186.066666 373.0 
186.977341 298.0 
187.076553 3652.0 
188.080322 209.0 
189.092514 759.0 
189.519287 246.0 
190.021072 252.0 
190.06134 11977.0 
191.037598 236.0 
191.066895 1363.0 
191.110458 159.0 
191.871414 334.0 
192.07077 226.0 
193.085403 1441.0 
194.091187 276.0 
200.082764 133.0 
201.005264 402.0 
201.086517 118.0 
202.063629 200.0 
202.98848 146.0 
203.071075 4123.0 
203.977081 213.0 
204.076202 481.0 
204.659668 94.0 
205.011749 500.0 
205.03009 462.0 
205.086029 35497.0 
205.148987 340.0 
205.229797 211.0 
205.293671 96.0 
206.091873 4232.0 
206.534256 102.0 
206.584488 155.0 
207.02002 187.0 
207.068497 228.0 
207.092133 330.0 
209.074921 321.0 
211.559692 285.0 
212.341751 168.0 
215.069321 483.0 
217.04187 530.0 
217.086288 16975.0 
218.089508 1391.0 
219.014099 343.0 
219.044754 96.0 
219.099823 2635.0 
221.070847 213.0 
223.097397 3582.0 
224.098526 669.0 
229.060349 103.0 
229.082016 312.0 
230.089249 175.0 
231.085663 192.0 
232.084518 207.0 
233.040482 167.0 
233.069672 456.0 
235.05101 393.0 
235.097046 14003.0 
236.102951 1324.0 
237.029205 326.0 
237.114319 255.0 
238.029144 95.0 
238.065826 108.0 
241.071442 298.0 
242.413651 331.0 
243.09552 192.0 
244.087402 168.0 
245.035538 131.0 
247.094025 4579.0 
247.166901 98.0 
248.097336 808.0 
251.112793 106.0 
253.086166 87.0 
253.116257 149.0 
254.061996 91.0 
255.038895 332.0 
258.147369 164.0 
259.073456 145.0 
260.08139 158.0 
262.07666 315.0 
263.107147 873.0 
264.07074 174.0 
264.118286 399.0 
264.83606 115.0 
265.107758 28616.0 
266.057037 113.0 
266.110901 2550.0 
267.104065 358.0 
268.019714 152.0 
269.035736 100.0 
271.096069 1091.0 
273.024109 80.0 
273.12851 268.0 
274.092926 140.0 
275.068298 162.0 
276.07782 529.0 
279.060608 136.0 
279.104095 862.0 
280.111755 351.0 
282.123596 85.0 
283.048035 160.0 
284.064545 312.0 
284.160461 115.0 
286.091217 237.0 
287.067169 130.0 
287.109344 151.0 
291.101807 1565.0 
292.06897 138.0 
292.101959 227.0 
293.069092 218.0 
293.12326 100.0 
295.08905 136.0 
296.125732 212.0 
299.087494 415.0 
300.066711 142.0 
301.072693 186.0 
307.096039 1013.0 
308.105316 942.0 
309.072083 389.0 
309.110809 124.0 
310.077332 141.0 
311.081268 183.0 
311.129517 258.0 
315.083893 2087.0 
316.088928 586.0 
317.089355 201.0 
318.083832 206.0 
319.094727 466.0 
320.081848 154.0 
320.114044 494.0 
322.113251 283.0 
323.081665 201.0 
323.133057 1500.0 
324.111084 123.0 
325.117126 371.0 
326.105774 160.0 
327.09082 540.0 
328.089935 274.0 
329.147858 205.0 
330.11087 3888.0 
331.118011 3060.0 
332.117615 442.0 
335.096069 514.0 
336.095612 251.0 
336.126465 127.0 
337.07309 154.0 
337.11377 488.0 
338.11441 146.0 
339.120087 1270.0 
339.593597 153.0 
340.081116 386.0 
340.122742 322.0 
341.139557 140.0 
343.110535 730.0 
344.12796 289.0 
351.084625 211.0 
351.116425 1005.0 
352.125183 517.0 
352.600555 276.0 
353.092804 305.0 
353.140503 687.0 
354.150421 340.0 
355.078156 144.0 
355.11911 162.0 
356.122223 763.0 
358.12973 120.0 
363.060181 254.0 
367.071899 185.0 
368.002289 120.0 
368.114532 542.0 
369.132751 1142.0 
370.138733 197.0 
371.147064 2908.0 
372.156342 394.0 
373.17099 254.0 
374.176727 382.0 
379.389923 151.0 
381.056519 237.0 
381.811859 179.0 
383.151276 7237.0 
383.489075 195.0 
383.766144 92.0 
384.161072 1275.0 
391.118744 869.0 
391.593964 226.0 
391.634888 335.0 
399.163605 254.0 
401.161652 13791.0 
402.161835 1547.0 
403.161682 193.0 
404.070892 133.0 
417.152313 359.0 
419.170654 1596.0 
420.179352 392.0 
425.570282 267.0 
430.07962 176.0 
445.115784 328.0 
448.106171 250.0 
452.944336 104.0 
460.094421 281.0 
461.103363 189.0 
461.419067 222.0 
473.696991 150.0 
475.123993 1269.0 
478.050842 166.0 
490.429932 166.0 
519.185059 322.0 
529.151855 108.0 
540.141907 112.0 
598.238464 89.0 
600.195679 382.0 
604.729797 269.0 
619.116272 123.0 
619.171021 1190.0 
680.728149 173.0 
681.186646 193.0 
681.288391 222.0 
759.387634 132.0 
762.268982 604.0 
763.257629 181.0 
781.222595 82.0 
1037.349609 118.0 
1761.476196 250.0 
1883.591675 113.0 
1897.453735 271.0 
END IONS

BEGIN IONS
TITLE=Scan Number: 529
PEPMASS=1085.54004
CHARGE=1+
MSLEVEL=2
FILENAME=A12_BA12_01_2844.mzXML
INSTRUMENT=ion trap
SCANS=529
SMILES=C[C@@H]1O[C@@H](OC[C@H]2O[C@@H](O[C@@H]3[C@@H](O)[C@H](C)O[C@@H](OC\C(C)=C\CC\C(C)=C\CC\C(C)=C\CCC(C)(O[C@@H]4O[C@H](CO)[C@@H](O)[C@H](O)[C@H]4O[C@@H]5O[C@H](CO)[C@@H](O)[C@H](O)[C@H]5O)C=C)[C@@H]3O)[C@H](O)[C@@H](O)[C@@H]2O)[C@H](O)[C@H](O)[C@H]1O
INCHIKEY=NFBYZSYLZUMCFV-JJRRTKJUSA-N
71.011948 152.0 
71.048393 4144.0 
73.028465 1297.0 
75.04451 1480.0 
80.099152 245.0 
81.033279 310.0 
81.069817 489.0 
83.048119 5089.0 
83.078804 403.0 
83.796852 96.0 
84.05172 139.0 
84.114143 136.0 
84.938751 108.0 
85.028091 16659.0 
85.209389 152.0 
86.028267 461.0 
87.044067 1017.0 
88.169693 293.0 
90.426003 121.0 
91.038605 579.0 
93.06913 1892.0 
95.048409 787.0 
95.085083 1309.0 
97.029091 1763.0 
97.051575 118.0 
97.069145 238.0 
97.369591 261.0 
98.172684 132.0 
99.042099 1059.0 
101.06076 602.0 
103.037659 695.0 
105.075729 631.0 
106.359764 313.0 
107.084381 1343.0 
108.076408 156.0 
108.338646 198.0 
109.027916 1494.0 
109.064667 266.0 
109.101006 2612.0 
110.095604 236.0 
111.005814 417.0 
111.044144 8956.0 
111.077065 384.0 
111.114517 337.0 
112.04985 402.0 
112.072945 104.0 
113.058632 318.0 
115.036079 130.0 
117.054268 889.0 
119.080322 846.0 
119.202606 110.0 
119.90361 160.0 
120.096596 207.0 
120.865448 205.0 
121.100082 2945.0 
121.65596 364.0 
122.102257 182.0 
123.042259 811.0 
123.115379 742.0 
124.121376 83.0 
125.057045 365.0 
125.094467 172.0 
126.066566 164.0 
127.040092 5363.0 
128.042358 174.0 
129.054245 23654.0 
130.057983 1652.0 
130.219223 224.0 
130.948578 132.0 
131.049301 219.0 
131.086395 304.0 
132.073471 111.0 
133.045807 192.0 
133.065536 124.0 
133.099884 1737.0 
134.499008 261.0 
135.015106 190.0 
135.04512 176.0 
135.114761 1575.0 
135.645325 136.0 
136.707642 261.0 
137.055588 248.0 
137.095673 263.0 
137.138275 741.0 
137.567139 93.0 
138.064178 351.0 
138.127731 132.0 
138.314224 127.0 
139.03688 541.0 
139.073792 268.0 
140.044449 164.0 
142.058792 225.0 
143.042358 286.0 
143.086731 212.0 
144.217545 195.0 
145.05043 8131.0 
145.101639 1543.0 
145.882278 455.0 
146.048447 504.0 
146.60997 213.0 
146.66655 214.0 
146.756058 154.0 
147.065216 25407.0 
147.117508 944.0 
147.194931 132.0 
147.311401 97.0 
147.378357 85.0 
147.418961 242.0 
147.709366 154.0 
148.070526 812.0 
149.024857 175.0 
149.06076 902.0 
149.094315 809.0 
149.133286 1969.0 
149.181076 167.0 
150.135117 567.0 
151.037888 446.0 
151.076004 321.0 
152.495468 180.0 
153.053986 4623.0 
153.117783 148.0 
154.126114 162.0 
154.461243 332.0 
155.058884 451.0 
155.175629 142.0 
157.048676 1361.0 
157.104767 397.0 
158.101456 428.0 
159.062088 921.0 
159.115784 1646.0 
160.109879 148.0 
161.131104 1959.0 
161.289642 147.0 
162.061386 160.0 
162.134506 363.0 
163.016052 162.0 
163.061127 6145.0 
163.115936 392.0 
163.14888 2070.0 
163.586441 223.0 
164.151047 93.0 
165.057709 404.0 
165.077362 905.0 
165.126282 372.0 
165.166534 143.0 
166.078995 214.0 
166.910721 222.0 
167.07222 565.0 
169.04744 452.0 
171.065277 4070.0 
171.105377 215.0 
172.068832 150.0 
172.349899 313.0 
173.081146 201.0 
173.129898 682.0 
174.080063 90.0 
175.065048 186.0 
175.148987 1773.0 
176.152756 227.0 
177.130234 252.0 
177.159882 975.0 
179.072678 821.0 
181.084625 230.0 
182.104568 137.0 
183.061844 705.0 
185.130356 782.0 
186.697861 168.0 
187.11412 165.0 
187.152069 829.0 
187.207611 175.0 
188.093384 204.0 
188.154129 98.0 
189.075836 451.0 
189.16272 1522.0 
190.081451 141.0 
190.171936 150.0 
191.10643 208.0 
191.177704 166.0 
193.08609 548.0 
193.19519 144.0 
195.064056 374.0 
196.065857 182.0 
197.085953 452.0 
197.131638 159.0 
199.060104 387.0 
199.151352 488.0 
201.076965 2634.0 
201.114624 177.0 
201.164841 380.0 
202.090485 468.0 
202.17688 134.0 
203.177551 684.0 
204.089722 187.0 
205.07045 172.0 
205.123077 183.0 
206.124039 93.0 
207.064651 413.0 
209.090759 183.0 
211.062378 800.0 
211.113144 218.0 
211.145157 160.0 
212.155014 242.0 
213.042221 130.0 
213.075623 2319.0 
213.136292 253.0 
213.162888 264.0 
214.068344 159.0 
215.092087 122.0 
215.178864 1825.0 
217.073105 374.0 
217.103439 127.0 
217.148392 240.0 
217.195465 256.0 
218.072205 134.0 
219.062866 204.0 
220.067642 221.0 
221.036896 246.0 
221.07991 490.0 
221.152252 348.0 
222.114716 119.0 
223.059097 196.0 
223.131577 715.0 
225.068161 428.0 
225.112885 188.0 
225.143448 157.0 
227.108765 244.0 
227.174942 514.0 
229.111908 154.0 
229.189941 193.0 
231.049072 174.0 
231.085602 1130.0 
231.207123 574.0 
232.223541 229.0 
235.144577 126.0 
237.074799 2683.0 
237.161133 118.0 
238.072449 119.0 
238.551971 91.0 
239.091446 7104.0 
239.180695 90.0 
240.093658 1626.0 
240.405975 94.0 
241.099625 130.0 
243.086624 1300.0 
243.209991 270.0 
245.096725 176.0 
245.186493 248.0 
245.228622 175.0 
247.080444 233.0 
249.142075 474.0 
249.864563 102.0 
250.184357 119.0 
251.171097 332.0 
251.675339 94.0 
253.194 94.0 
254.817642 87.0 
255.009323 154.0 
255.084259 3252.0 
255.177475 137.0 
256.088593 844.0 
256.155457 224.0 
257.102661 6536.0 
257.189972 184.0 
257.233032 335.0 
258.103516 1376.0 
258.225861 205.0 
259.246368 168.0 
261.1492 186.0 
263.159454 159.0 
265.118134 182.0 
265.191406 164.0 
267.20343 155.0 
269.227203 470.0 
270.227875 325.0 
271.079712 140.0 
271.166595 287.0 
271.20166 161.0 
271.241211 8884.0 
271.29184 360.0 
271.64325 127.0 
271.746552 181.0 
272.247284 1074.0 
273.040558 110.0 
273.096558 9066.0 
273.251709 711.0 
274.099182 1087.0 
274.661926 187.0 
275.11142 7915.0 
275.510986 172.0 
276.115967 616.0 
277.180603 173.0 
277.903503 128.0 
279.040314 276.0 
279.211639 228.0 
280.042755 320.0 
281.230469 277.0 
283.240784 251.0 
284.244171 91.0 
285.239807 177.0 
286.191193 93.0 
289.069458 326.0 
289.095123 313.0 
289.180695 142.0 
289.249695 959.0 
291.11319 1328.0 
292.109253 99.0 
292.202759 176.0 
292.46759 95.0 
292.97995 238.0 
293.123993 26395.0 
293.223114 302.0 
294.126953 1993.0 
295.130798 339.0 
295.233185 306.0 
295.746552 184.0 
297.256989 168.0 
301.258759 733.0 
303.841217 166.0 
305.219513 288.0 
306.801483 161.0 
307.244598 220.0 
309.054749 195.0 
309.119751 18606.0 
309.297821 113.0 
309.47998 225.0 
310.04126 193.0 
310.083191 181.0 
310.125336 2413.0 
311.117615 181.0 
311.242004 242.0 
313.247986 534.0 
314.13269 91.0 
316.208649 115.0 
317.169769 178.0 
317.260437 183.0 
319.239624 110.0 
320.260803 132.0 
321.184937 93.0 
321.219299 260.0 
323.215668 320.0 
324.228271 130.0 
324.976959 188.0 
325.112366 3254.0 
325.250488 287.0 
326.110107 374.0 
327.122589 331.0 
329.246735 247.0 
332.243896 139.0 
333.209442 132.0 
335.221588 106.0 
337.254791 168.0 
339.096741 184.0 
344.141083 75.0 
345.20462 135.0 
351.126373 116.0 
355.25827 441.0 
357.232452 185.0 
361.237335 484.0 
363.09259 191.0 
363.264404 129.0 
364.27359 178.0 
365.137115 223.0 
373.28009 227.0 
375.257812 171.0 
381.282501 930.0 
382.297546 362.0 
383.132355 395.0 
384.137543 118.0 
387.383148 266.0 
397.248993 153.0 
399.131256 226.0 
399.289368 1759.0 
400.302094 188.0 
401.14502 671.0 
405.12561 126.0 
410.238007 124.0 
415.166748 219.0 
415.303467 314.0 
417.148743 548.0 
417.299225 2872.0 
418.19339 169.0 
418.303589 1293.0 
419.158661 1530.0 
419.313995 240.0 
420.162506 344.0 
420.27124 84.0 
433.281952 232.0 
434.290344 89.0 
435.157715 988.0 
435.274841 90.0 
435.315216 658.0 
437.290955 182.0 
439.141388 142.0 
449.337494 91.0 
451.307739 453.0 
453.304871 146.0 
455.175354 2541.0 
456.178436 516.0 
457.182922 209.0 
458.301849 146.0 
459.29715 117.0 
463.154114 167.0 
465.308624 201.0 
467.098114 130.0 
467.134186 217.0 
471.173157 2599.0 
472.180115 754.0 
473.061798 87.0 
473.191223 591.0 
477.253387 132.0 
481.280243 107.0 
483.306305 120.0 
489.278076 142.0 
490.05838 123.0 
490.248749 91.0 
490.303284 194.0 
509.332703 162.0 
510.337616 130.0 
527.176025 285.0 
527.327637 389.0 
532.288574 116.0 
541.312683 138.0 
543.342041 156.0 
545.177795 176.0 
561.347229 286.0 
562.243713 237.0 
562.742676 620.0 
563.207031 170.0 
581.19989 208.0 
617.23053 1040.0 
618.215515 316.0 
634.202332 116.0 
635.243896 167.0 
705.3927 123.0 
863.44574 177.0 
905.463135 162.0 
1248.698242 140.0 
1341.239136 284.0 
1383.882812 326.0 
1553.739258 106.0 
1608.231201 221.0 
END IONS

BEGIN IONS
TITLE=Scan Number: 530
PEPMASS=1067.53003
CHARGE=1+
MSLEVEL=2
FILENAME=A12_BA12_01_2844.mzXML
INSTRUMENT=ion trap
SCANS=530
SMILES=C[C@@H]1O[C@@H](OC[C@H]2O[C@@H](O[C@@H]3[C@@H](O)[C@H](C)O[C@@H](OC\C(C)=C\CC\C(C)=C\CC\C(C)=C\CCC(C)(O[C@@H]4O[C@H](CO)[C@@H](O)[C@H](O)[C@H]4O[C@@H]5O[C@H](CO)[C@@H](O)[C@H](O)[C@H]5O)C=C)[C@@H]3O)[C@H](O)[C@@H](O)[C@@H]2O)[C@H](O)[C@H](O)[C@H]1O
INCHIKEY=NFBYZSYLZUMCFV-JJRRTKJUSA-N
70.760857 171.0 
71.048271 1891.0 
75.047234 199.0 
75.409897 236.0 
81.068649 617.0 
83.049225 2856.0 
83.545593 140.0 
85.027672 11356.0 
85.066406 134.0 
86.032417 908.0 
87.04335 973.0 
91.060951 264.0 
93.070213 508.0 
93.128471 124.0 
94.93679 93.0 
95.083778 236.0 
97.028625 1373.0 
97.064339 465.0 
99.044388 1429.0 
99.080093 197.0 
101.061089 278.0 
103.041924 360.0 
105.071533 317.0 
105.413826 255.0 
107.051804 185.0 
107.086929 1171.0 
109.028183 748.0 
109.100052 1896.0 
110.067223 298.0 
110.103378 219.0 
110.802559 133.0 
110.821602 136.0 
111.010239 309.0 
111.044075 3002.0 
111.18576 143.0 
111.373802 103.0 
112.049965 126.0 
113.029587 296.0 
113.056976 744.0 
119.08696 1013.0 
120.087898 342.0 
121.064751 277.0 
121.097763 858.0 
123.076103 119.0 
123.1138 406.0 
125.061928 121.0 
127.04055 3175.0 
127.072845 262.0 
128.027878 419.0 
129.054062 10352.0 
130.026505 120.0 
130.056564 231.0 
131.059174 496.0 
131.092682 126.0 
131.120651 137.0 
131.35434 119.0 
133.101288 759.0 
135.045975 556.0 
135.1138 585.0 
137.133636 231.0 
139.079422 201.0 
141.053421 486.0 
141.298676 85.0 
143.013992 181.0 
143.073135 249.0 
144.48587 236.0 
144.938202 174.0 
145.04924 3806.0 
145.078934 126.0 
145.10144 947.0 
145.261658 152.0 
145.343414 151.0 
145.364136 111.0 
145.658249 83.0 
146.058945 174.0 
146.099564 217.0 
146.610809 93.0 
147.064026 10450.0 
147.115524 2014.0 
148.068695 150.0 
148.31514 87.0 
149.058685 242.0 
149.132568 1450.0 
150.073273 241.0 
150.135406 95.0 
151.074661 704.0 
151.148102 414.0 
153.052322 916.0 
154.059616 121.0 
155.479553 99.0 
157.047897 420.0 
157.10173 238.0 
158.063568 211.0 
159.065857 167.0 
159.116043 979.0 
160.121323 187.0 
161.133194 2048.0 
162.136581 156.0 
163.060165 1668.0 
163.145737 857.0 
165.071091 413.0 
165.552261 208.0 
167.146088 183.0 
169.054886 267.0 
169.102142 177.0 
171.06395 1687.0 
171.117188 559.0 
172.065399 120.0 
173.130646 704.0 
174.134171 136.0 
174.804489 95.0 
175.025513 139.0 
175.113876 130.0 
175.138962 427.0 
176.082947 118.0 
177.052429 375.0 
177.161697 510.0 
179.068481 381.0 
180.071808 99.0 
182.252121 119.0 
183.064056 304.0 
183.117386 165.0 
185.131119 741.0 
187.095367 123.0 
189.079193 114.0 
189.161957 498.0 
191.05661 449.0 
191.178879 359.0 
192.184265 141.0 
193.087296 180.0 
194.108826 146.0 
195.068497 159.0 
195.122238 160.0 
195.369995 108.0 
196.070038 374.0 
199.05455 162.0 
199.148529 535.0 
200.076721 260.0 
201.075546 597.0 
201.112991 251.0 
201.1651 957.0 
202.082382 145.0 
203.037201 75.0 
203.100784 285.0 
203.182617 518.0 
205.01709 159.0 
205.118927 83.0 
207.059357 207.0 
211.058731 237.0 
211.092834 177.0 
212.240479 170.0 
213.072235 492.0 
213.159485 194.0 
214.168808 513.0 
215.094604 157.0 
215.181335 1050.0 
216.14743 101.0 
217.159943 137.0 
217.894806 219.0 
218.200104 357.0 
219.020844 370.0 
219.17807 246.0 
221.071259 401.0 
225.168167 218.0 
227.176529 220.0 
227.687866 143.0 
229.172226 243.0 
230.158218 192.0 
231.060272 253.0 
231.088623 716.0 
231.207947 236.0 
233.191208 110.0 
237.072189 954.0 
238.078232 176.0 
238.112335 128.0 
238.556259 111.0 
239.093903 4279.0 
239.353882 149.0 
240.093246 342.0 
241.098373 230.0 
241.152267 96.0 
241.190231 93.0 
243.08374 214.0 
246.161133 99.0 
247.073181 157.0 
249.169312 405.0 
251.177979 102.0 
253.186996 347.0 
255.085327 2310.0 
255.167435 111.0 
255.214142 549.0 
256.094421 510.0 
257.102722 2389.0 
257.23233 450.0 
258.027893 101.0 
258.110046 163.0 
258.23114 200.0 
259.204559 125.0 
263.183472 244.0 
267.180969 173.0 
267.209412 144.0 
269.227112 607.0 
270.235046 117.0 
270.741089 241.0 
271.036102 177.0 
271.202545 157.0 
271.243988 4296.0 
272.246735 978.0 
273.06488 241.0 
273.097382 2454.0 
273.210052 111.0 
273.25946 98.0 
273.401672 95.0 
274.102264 477.0 
275.053467 88.0 
275.115326 2906.0 
275.16922 180.0 
276.11496 315.0 
281.18454 85.0 
281.233337 579.0 
284.196472 138.0 
287.148773 143.0 
287.198792 118.0 
289.263947 336.0 
289.640533 256.0 
289.992676 157.0 
291.172394 175.0 
291.295807 130.0 
292.115417 135.0 
293.122284 8869.0 
293.180573 295.0 
294.130615 766.0 
295.241943 329.0 
296.033844 102.0 
299.168152 179.0 
301.216095 299.0 
305.203674 152.0 
307.186798 284.0 
307.244568 291.0 
309.119476 6474.0 
310.121674 838.0 
313.248047 204.0 
313.274384 234.0 
317.236969 161.0 
319.245026 366.0 
324.235504 254.0 
325.115875 1942.0 
325.217529 227.0 
337.240479 209.0 
339.27121 139.0 
341.252411 169.0 
343.225555 134.0 
347.121674 156.0 
351.200043 158.0 
353.178772 96.0 
354.093231 236.0 
355.181885 141.0 
355.267273 366.0 
361.239655 206.0 
363.256836 123.0 
365.119873 165.0 
369.237061 108.0 
373.111206 209.0 
375.213745 122.0 
377.277588 92.0 
379.25885 230.0 
381.27948 373.0 
383.129639 196.0 
397.264557 433.0 
399.292999 1004.0 
400.295746 229.0 
401.15097 340.0 
401.325836 194.0 
415.275055 427.0 
416.05777 86.0 
416.224426 169.0 
416.286194 137.0 
417.141113 90.0 
417.247253 92.0 
417.302094 1690.0 
417.819977 137.0 
418.303528 415.0 
419.155121 729.0 
419.311096 419.0 
431.302429 156.0 
433.290344 399.0 
433.802582 179.0 
435.104279 253.0 
435.154419 283.0 
435.311127 454.0 
437.170044 125.0 
448.298645 135.0 
455.175049 837.0 
456.1716 162.0 
458.981537 177.0 
461.243164 163.0 
467.113281 167.0 
471.166199 1029.0 
471.315125 176.0 
472.183411 237.0 
487.308472 119.0 
489.298645 171.0 
527.165833 185.0 
543.347961 226.0 
545.344177 122.0 
561.30011 138.0 
561.344421 172.0 
562.244629 311.0 
562.352295 301.0 
563.239197 151.0 
579.369324 212.0 
595.350281 182.0 
597.382996 160.0 
663.384766 114.0 
689.388794 180.0 
708.311707 213.0 
888.430969 162.0 
1067.535522 138.0 
1068.649536 125.0 
1105.057251 159.0 
END IONS

BEGIN IONS
TITLE=Scan Number: 531
PEPMASS=1102.56006
CHARGE=1+
MSLEVEL=2
FILENAME=A12_BA12_01_2844.mzXML
INSTRUMENT=ion trap
SCANS=531
SMILES=C[C@@H]1O[C@@H](OC[C@H]2O[C@@H](O[C@@H]3[C@@H](O)[C@H](C)O[C@@H](OC\C(C)=C\CC\C(C)=C\CC\C(C)=C\CCC(C)(O[C@@H]4O[C@H](CO)[C@@H](O)[C@H](O)[C@H]4O[C@@H]5O[C@H](CO)[C@@H](O)[C@H](O)[C@H]5O)C=C)[C@@H]3O)[C@H](O)[C@@H](O)[C@@H]2O)[C@H](O)[C@H](O)[C@H]1O
INCHIKEY=NFBYZSYLZUMCFV-JJRRTKJUSA-N
70.40992 180.0 
71.005936 275.0 
71.048729 4684.0 
72.053391 571.0 
73.027519 172.0 
75.042603 363.0 
77.62722 275.0 
79.05336 168.0 
80.568062 197.0 
80.895004 313.0 
81.024864 188.0 
81.06749 3148.0 
81.120407 210.0 
81.833176 316.0 
83.027199 184.0 
83.047096 2253.0 
83.08638 406.0 
83.214256 108.0 
84.050285 138.0 
85.027687 18832.0 
85.087418 134.0 
85.668068 94.0 
85.714478 108.0 
86.031441 687.0 
86.924644 133.0 
87.044365 1119.0 
87.773247 290.0 
89.055122 212.0 
91.049522 251.0 
93.07077 4186.0 
94.714005 137.0 
95.048477 888.0 
95.085304 4557.0 
95.133537 193.0 
95.38813 168.0 
96.053421 128.0 
97.009323 175.0 
97.027969 1545.0 
97.064468 563.0 
97.101685 441.0 
99.044121 876.0 
100.044037 143.0 
103.037743 462.0 
105.068413 1799.0 
106.068222 157.0 
107.085892 4536.0 
108.079994 93.0 
109.024658 601.0 
109.06353 495.0 
109.100594 5202.0 
110.109352 122.0 
111.00061 106.0 
111.043808 6510.0 
112.120346 166.0 
112.992111 196.0 
113.060547 1367.0 
117.05439 777.0 
118.056328 190.0 
119.084404 3480.0 
120.085373 263.0 
121.063278 108.0 
121.100555 4825.0 
122.102089 596.0 
123.042557 920.0 
123.080391 195.0 
123.115021 2062.0 
124.119812 713.0 
124.408821 179.0 
125.066467 184.0 
125.09494 209.0 
125.13517 239.0 
126.054909 204.0 
127.039894 4742.0 
127.07412 127.0 
128.040604 279.0 
128.074982 277.0 
128.994812 293.0 
129.05452 20650.0 
129.141388 108.0 
129.380615 82.0 
130.057129 1174.0 
131.069504 120.0 
132.968048 271.0 
133.051575 241.0 
133.075882 134.0 
133.101395 2383.0 
134.103119 163.0 
135.076599 314.0 
135.117569 3717.0 
135.38092 139.0 
137.06076 604.0 
137.096802 422.0 
137.131912 495.0 
139.035583 571.0 
139.106003 358.0 
140.039185 135.0 
141.084702 186.0 
141.126755 146.0 
142.998932 155.0 
143.069427 81.0 
143.087708 621.0 
144.09169 217.0 
145.049103 7730.0 
145.098465 1352.0 
146.051437 253.0 
146.082855 180.0 
146.391373 204.0 
146.907059 102.0 
147.064758 13723.0 
147.117142 3961.0 
148.067169 721.0 
148.116669 574.0 
148.861526 100.0 
149.060532 1008.0 
149.095276 477.0 
149.132614 3229.0 
149.231689 171.0 
150.097687 201.0 
150.134689 552.0 
150.157074 199.0 
151.023178 201.0 
151.110519 178.0 
152.064804 141.0 
153.053833 2176.0 
154.056488 404.0 
155.069672 1171.0 
157.050262 139.0 
157.097321 198.0 
159.066177 838.0 
159.115143 3221.0 
160.120407 175.0 
161.064911 559.0 
161.132233 4074.0 
162.07016 181.0 
162.133255 488.0 
162.709503 98.0 
162.780792 109.0 
163.058334 3593.0 
163.10878 275.0 
163.148987 5335.0 
163.368149 203.0 
163.840942 234.0 
164.063034 479.0 
164.152496 482.0 
165.050766 410.0 
165.092651 874.0 
165.13118 368.0 
165.165298 286.0 
167.063156 156.0 
167.108429 138.0 
167.138489 137.0 
168.429092 92.0 
169.05069 415.0 
169.099136 136.0 
170.055283 188.0 
170.110596 622.0 
171.063965 1810.0 
171.097153 263.0 
171.119308 556.0 
172.066818 432.0 
172.117523 159.0 
172.802826 149.0 
173.048859 154.0 
173.082047 134.0 
173.101364 244.0 
173.133545 1636.0 
174.087097 219.0 
174.134628 575.0 
175.072235 546.0 
175.113251 184.0 
175.149673 3591.0 
176.155334 562.0 
177.074738 243.0 
177.162079 2738.0 
177.744705 89.0 
178.167862 143.0 
179.070679 96.0 
179.141357 275.0 
181.041702 135.0 
183.062103 189.0 
183.116943 177.0 
184.067505 179.0 
184.120499 249.0 
185.090179 309.0 
185.123138 303.0 
186.45163 143.0 
187.07077 233.0 
187.148407 2141.0 
188.149231 404.0 
189.002472 180.0 
189.075531 334.0 
189.163864 2998.0 
189.286835 142.0 
190.146637 236.0 
190.170639 211.0 
191.071716 139.0 
191.104095 158.0 
191.143112 417.0 
191.176926 450.0 
192.046951 347.0 
193.046219 298.0 
193.085648 284.0 
193.162079 937.0 
194.08902 189.0 
195.066315 964.0 
195.117477 159.0 
197.120468 184.0 
198.627518 149.0 
198.995163 105.0 
199.036102 377.0 
199.089981 182.0 
199.118896 237.0 
199.146988 323.0 
199.388489 94.0 
200.094543 85.0 
200.157394 137.0 
201.003586 335.0 
201.073105 1258.0 
201.110794 529.0 
201.163116 3976.0 
202.165604 94.0 
202.776291 171.0 
203.016464 204.0 
203.069244 186.0 
203.143707 414.0 
203.175034 1228.0 
203.549637 201.0 
203.997238 101.0 
204.185455 187.0 
205.180649 235.0 
207.12204 117.0 
207.176712 154.0 
210.12413 199.0 
211.070511 233.0 
211.097931 558.0 
211.148315 381.0 
211.553726 278.0 
212.066116 74.0 
213.075928 1022.0 
213.123734 348.0 
213.162537 1217.0 
213.433517 169.0 
214.173615 388.0 
214.490555 263.0 
215.003784 177.0 
215.089554 211.0 
215.132843 226.0 
215.179657 7026.0 
215.294495 97.0 
216.147507 159.0 
216.18692 919.0 
217.070923 132.0 
217.182892 622.0 
219.016098 497.0 
219.061829 260.0 
219.131744 191.0 
221.028992 140.0 
221.080948 577.0 
223.140457 495.0 
225.017426 137.0 
225.078003 544.0 
225.146896 294.0 
225.169693 503.0 
226.673889 298.0 
226.862091 148.0 
227.14592 155.0 
227.174026 203.0 
228.895096 182.0 
229.073593 198.0 
229.107376 172.0 
229.195175 742.0 
230.127182 89.0 
230.193405 333.0 
231.088379 462.0 
231.135529 310.0 
231.176025 136.0 
231.215912 284.0 
232.089783 242.0 
233.117905 283.0 
233.15155 154.0 
237.030182 1219.0 
237.076752 1717.0 
237.146194 97.0 
237.16983 194.0 
239.09021 6265.0 
239.135818 253.0 
239.177963 538.0 
240.0952 980.0 
241.094376 116.0 
241.143021 181.0 
241.191605 204.0 
241.95932 199.0 
242.13295 158.0 
243.088196 143.0 
243.127518 138.0 
243.175293 271.0 
243.212036 726.0 
244.176941 384.0 
245.158295 169.0 
245.222366 176.0 
247.075897 467.0 
249.146622 161.0 
250.181656 203.0 
251.180634 222.0 
252.034088 203.0 
253.194656 521.0 
255.037918 473.0 
255.083817 2108.0 
255.167862 304.0 
255.210434 107.0 
256.993896 148.0 
257.059509 291.0 
257.102417 4614.0 
257.184784 345.0 
257.229126 1008.0 
258.10434 667.0 
258.225342 153.0 
259.051514 191.0 
261.027008 1003.0 
261.153137 285.0 
262.161774 90.0 
263.037445 195.0 
263.148895 211.0 
269.177124 551.0 
269.227142 852.0 
270.181335 212.0 
270.226715 390.0 
271.052826 296.0 
271.187927 245.0 
271.242554 15182.0 
271.979706 145.0 
272.086761 219.0 
272.15329 207.0 
272.244507 3073.0 
272.655945 122.0 
273.033142 165.0 
273.096588 5862.0 
273.194519 178.0 
273.224915 114.0 
273.266296 218.0 
274.097626 551.0 
275.112823 6465.0 
275.171143 140.0 
276.114746 397.0 
277.160583 263.0 
278.957581 114.0 
278.992554 113.0 
279.037689 2724.0 
280.049469 148.0 
281.228424 308.0 
282.218567 174.0 
282.378265 147.0 
283.242645 814.0 
287.144379 119.0 
287.214081 153.0 
288.184235 129.0 
288.24704 98.0 
289.097015 498.0 
289.253906 1508.0 
289.737976 110.0 
289.772827 115.0 
290.093689 123.0 
290.257355 461.0 
290.687195 128.0 
291.108521 897.0 
291.21283 192.0 
291.815277 133.0 
292.102692 147.0 
293.12262 18797.0 
293.176483 453.0 
293.354279 100.0 
294.127167 1960.0 
295.117218 206.0 
295.240601 529.0 
297.223877 261.0 
297.255432 138.0 
297.336456 145.0 
299.244934 136.0 
300.200073 178.0 
300.241394 179.0 
301.228271 241.0 
301.265472 130.0 
303.277527 170.0 
305.455078 111.0 
307.055817 226.0 
307.101135 85.0 
307.190735 388.0 
307.267395 303.0 
309.068207 201.0 
309.117737 13662.0 
310.117096 3020.0 
311.112305 127.0 
311.199768 146.0 
311.236237 413.0 
314.252258 195.0 
315.162079 102.0 
317.057587 306.0 
317.160156 244.0 
317.211639 117.0 
319.035858 131.0 
321.223633 138.0 
323.069427 559.0 
323.27121 108.0 
325.113647 2158.0 
325.212494 142.0 
325.247986 895.0 
326.2164 115.0 
327.206482 124.0 
328.552673 99.0 
329.193695 102.0 
331.158722 208.0 
332.232758 185.0 
333.052216 354.0 
334.243561 120.0 
335.054932 422.0 
335.1875 221.0 
336.224213 118.0 
337.03183 96.0 
337.238098 329.0 
338.255981 141.0 
341.233002 202.0 
343.22583 90.0 
345.045288 114.0 
345.108459 209.0 
345.21579 208.0 
345.258362 174.0 
347.063263 307.0 
347.183624 278.0 
349.238525 128.0 
350.239929 133.0 
353.32074 144.0 
354.111938 224.0 
355.25769 221.0 
357.058716 209.0 
359.053833 141.0 
361.239105 438.0 
363.230469 262.0 
363.265869 468.0 
365.254486 176.0 
366.124542 154.0 
367.11441 171.0 
369.171997 215.0 
369.212799 184.0 
371.129242 119.0 
371.172546 132.0 
371.264679 149.0 
373.260437 160.0 
374.074432 110.0 
377.04245 309.0 
377.275909 132.0 
380.268982 174.0 
381.065918 112.0 
381.101288 137.0 
381.242462 235.0 
381.279938 1850.0 
381.376587 124.0 
382.255341 158.0 
382.288727 426.0 
383.136963 317.0 
384.235748 205.0 
385.137787 118.0 
388.916199 108.0 
389.075562 145.0 
391.156067 212.0 
391.226288 84.0 
393.065979 530.0 
396.108093 131.0 
397.260559 85.0 
398.279297 182.0 
399.088226 139.0 
399.294891 2170.0 
400.296997 196.0 
401.145996 919.0 
405.069092 745.0 
407.261536 93.0 
409.095062 360.0 
415.268066 226.0 
416.812927 100.0 
417.121429 359.0 
417.256653 413.0 
417.300232 6187.0 
417.655029 86.0 
418.087585 207.0 
418.304657 1204.0 
418.53125 203.0 
419.160675 1948.0 
419.311371 686.0 
419.468292 241.0 
420.155396 369.0 
421.176758 511.0 
421.660675 185.0 
423.079346 152.0 
423.234558 186.0 
426.129578 101.0 
426.614868 173.0 
429.308136 147.0 
430.251953 169.0 
432.297424 90.0 
433.29599 1242.0 
434.297699 172.0 
435.153076 912.0 
435.258118 186.0 
435.307648 833.0 
436.157166 109.0 
436.296204 252.0 
437.164764 128.0 
438.163605 162.0 
441.238892 185.0 
451.273895 130.0 
451.307251 245.0 
453.660309 205.0 
455.17688 3391.0 
456.098267 93.0 
456.138 138.0 
456.178955 435.0 
457.011932 134.0 
457.182129 337.0 
458.883545 134.0 
459.213898 92.0 
465.297607 113.0 
467.11087 725.0 
468.10083 82.0 
468.352936 237.0 
468.566193 93.0 
469.288147 83.0 
471.114319 245.0 
471.172729 3693.0 
472.197784 514.0 
473.166504 139.0 
473.306549 204.0 
475.271881 155.0 
477.013977 154.0 
478.318726 164.0 
479.127075 152.0 
481.269745 292.0 
483.010803 99.0 
486.955231 128.0 
488.096466 84.0 
489.183167 154.0 
489.249786 694.0 
490.229187 278.0 
491.323273 118.0 
494.175934 341.0 
499.302979 154.0 
501.339172 95.0 
502.207367 138.0 
509.322388 437.0 
510.332672 154.0 
511.086334 143.0 
513.11792 114.0 
525.289795 165.0 
527.338989 563.0 
528.146667 225.0 
528.211365 549.0 
543.343384 125.0 
545.35022 339.0 
546.348511 116.0 
546.425659 363.0 
561.346985 432.0 
561.759827 133.0 
562.249634 2835.0 
562.311218 159.0 
562.561584 141.0 
562.755615 1238.0 
563.258789 351.0 
563.366394 250.0 
567.757874 105.0 
579.355774 155.0 
580.343262 253.0 
580.438171 96.0 
581.222046 119.0 
581.378906 456.0 
582.293274 126.0 
582.348267 154.0 
585.138184 100.0 
586.132141 128.0 
597.353699 264.0 
608.359497 96.0 
617.229004 1224.0 
618.237366 875.0 
634.21991 192.0 
635.233887 110.0 
635.312134 458.0 
637.306152 200.0 
705.36908 123.0 
722.267151 107.0 
733.21283 148.0 
733.329651 152.0 
742.388977 193.0 
743.430115 640.0 
760.449951 569.0 
762.401611 298.0 
762.886658 329.0 
763.905762 171.0 
767.42627 137.0 
781.326233 94.0 
831.374207 174.0 
831.42749 194.0 
832.404785 162.0 
869.421387 109.0 
889.411011 102.0 
905.464233 94.0 
906.503357 172.0 
914.396179 160.0 
933.47937 449.0 
933.942078 158.0 
934.420349 197.0 
1079.993652 98.0 
1102.551025 178.0 
1103.501099 158.0 
1104.503418 1710.0 
1104.882812 258.0 
1105.001221 1305.0 
1105.511353 629.0 
1107.481079 159.0 
1109.549194 161.0 
1123.479126 751.0 
1124.470947 179.0 
1518.17749 404.0 
1687.263428 185.0 
1712.250366 291.0 
1814.60437 159.0 
1982.440552 264.0 
END IONS

BEGIN IONS
TITLE=Scan Number: 532
PEPMASS=303.12201
CHARGE=1+
MSLEVEL=2
FILENAME=E10_RE10_01_2866.mzXML
INSTRUMENT=ion trap
SCANS=532
SMILES=CC1=C(C)C(O)=C(CC2=C(O)C(C=O)=C(C)C=C2O)C(O)=C1
INCHIKEY=CTJPDNXMUMTMJX-UHFFFAOYSA-N
71.100586 255.0 
74.293373 199.0 
77.035484 394.0 
79.054169 2506.0 
80.054314 423.0 
80.347115 163.0 
81.033203 225.0 
81.070137 2288.0 
82.881721 78.0 
83.011513 1018.0 
83.051353 406.0 
84.008347 433.0 
84.960945 235.0 
85.402252 268.0 
86.134644 290.0 
87.47683 129.0 
89.037422 160.0 
90.64843 157.0 
91.053673 3760.0 
91.107971 223.0 
92.057915 126.0 
93.068192 267.0 
94.041092 1200.0 
95.010986 337.0 
95.045616 254.0 
95.085976 176.0 
96.600502 318.0 
102.108849 355.0 
102.950478 298.0 
105.043808 2209.0 
105.064613 240.0 
106.043259 358.0 
107.048538 8443.0 
108.052391 783.0 
109.028175 553.0 
109.064194 4000.0 
110.055847 205.0 
110.745026 72.0 
111.043884 842.0 
111.209358 118.0 
115.114334 224.0 
117.028915 180.0 
118.035385 160.0 
119.050583 2413.0 
120.049553 137.0 
120.746513 118.0 
121.064247 575.0 
122.036362 229.0 
123.047012 153.0 
123.078468 138.0 
124.051956 139.0 
125.063095 179.0 
126.451744 169.0 
129.274612 450.0 
135.044571 4542.0 
136.045685 178.0 
137.059692 6565.0 
139.074295 984.0 
139.110703 238.0 
141.267853 163.0 
142.992157 320.0 
144.826035 469.0 
145.027313 4381.0 
146.029861 135.0 
146.791321 143.0 
146.953735 176.0 
147.042313 3391.0 
150.030075 798.0 
151.041245 172.0 
151.075302 1312.0 
153.055756 278.0 
156.015305 205.0 
157.021805 91.0 
159.389069 95.0 
160.444595 86.0 
161.721375 176.0 
161.819916 141.0 
162.025452 145.0 
162.551468 120.0 
162.845566 204.0 
162.91243 136.0 
162.989746 456.0 
163.038483 121845.0 
163.079544 270.0 
163.121628 374.0 
163.149368 217.0 
163.183884 176.0 
163.321365 261.0 
163.385513 85.0 
163.500427 257.0 
163.551483 70.0 
164.00354 110.0 
164.041992 9811.0 
164.522461 274.0 
164.669876 126.0 
164.767426 127.0 
164.838486 215.0 
164.949463 167.0 
164.99025 198.0 
165.05423 206430.0 
165.151596 213.0 
165.211151 188.0 
165.237717 187.0 
165.282867 219.0 
165.363663 84.0 
165.518799 79.0 
165.909058 223.0 
166.057861 14471.0 
166.53653 137.0 
167.059219 67.0 
167.352295 214.0 
167.381287 65.0 
167.449722 144.0 
167.471313 134.0 
167.510681 154.0 
167.565796 84.0 
167.929169 125.0 
168.371155 94.0 
171.888474 207.0 
174.127274 77.0 
174.371521 95.0 
177.47818 76.0 
178.702164 91.0 
180.943542 184.0 
181.049011 5227.0 
182.049255 675.0 
184.489807 99.0 
190.737946 124.0 
285.111938 166.0 
303.120148 371.0 
1478.757324 70.0 
1481.86145 278.0 
1499.232422 223.0 
1560.625488 336.0 
1566.052734 247.0 
1656.75647 138.0 
1680.783081 293.0 
1725.741577 240.0 
1794.5896 249.0 
1843.094604 192.0 
1874.401855 341.0 
1903.424438 172.0 
1925.981323 127.0 
2002.882935 336.0 
END IONS

BEGIN IONS
TITLE=Scan Number: 533
PEPMASS=317.065
CHARGE=1+
MSLEVEL=2
FILENAME=E10_RE10_01_2866.mzXML
INSTRUMENT=ion trap
SCANS=533
SMILES=COC1=C(OC2=CC(O)=CC(O)=C2C1=O)C3=CC=C(O)C(O)=C3
INCHIKEY=WEPBGSIAWZTEJR-UHFFFAOYSA-N
70.001747 278.0 
71.22937 203.0 
71.89946 273.0 
76.341385 124.0 
79.930756 155.0 
80.040024 306.0 
80.879387 264.0 
81.010056 168.0 
81.033455 1151.0 
81.588036 365.0 
82.026848 156.0 
84.95433 753.0 
86.553955 268.0 
88.772575 168.0 
91.016769 188.0 
91.055565 420.0 
92.02404 1026.0 
92.059959 154.0 
94.040619 1031.0 
95.009605 174.0 
95.936028 243.0 
96.021889 524.0 
97.02948 310.0 
97.173203 166.0 
99.588585 278.0 
101.959991 244.0 
103.013992 157.0 
103.042564 250.0 
103.15419 86.0 
107.013847 214.0 
108.020866 2681.0 
109.028877 821.0 
110.035568 12143.0 
110.483902 347.0 
111.007484 519.0 
111.038025 542.0 
113.01696 120.0 
115.051651 504.0 
116.060303 404.0 
117.071877 291.0 
119.253876 240.0 
120.019676 218.0 
121.028625 1644.0 
121.813736 77.0 
122.005226 225.0 
122.03447 928.0 
122.183884 295.0 
122.997749 162.0 
123.040306 814.0 
124.01432 1454.0 
126.030754 1605.0 
127.037254 696.0 
127.147896 95.0 
128.042358 471.0 
128.332947 150.0 
129.044556 156.0 
129.354568 201.0 
130.051376 295.0 
131.04715 1110.0 
132.054977 378.0 
133.028748 271.0 
133.066467 442.0 
135.002411 437.0 
135.040283 152.0 
135.068039 188.0 
136.015076 8519.0 
136.050613 243.0 
136.654236 116.0 
136.988922 428.0 
137.023239 36503.0 
138.02562 2706.0 
139.034805 284.0 
139.619247 254.0 
140.128036 114.0 
143.048279 319.0 
143.412598 102.0 
144.019943 122.0 
144.045334 680.0 
144.057144 672.0 
144.540436 76.0 
145.021667 139.0 
145.06102 764.0 
145.309952 122.0 
145.629883 97.0 
146.041397 252.0 
146.065033 122.0 
147.019989 178.0 
147.044312 900.0 
147.069946 218.0 
147.317795 217.0 
148.053009 398.0 
149.023743 112.0 
149.060211 745.0 
150.030945 3405.0 
150.063339 331.0 
151.479187 185.0 
152.008347 1023.0 
152.056534 111.0 
152.978668 260.0 
153.017227 15835.0 
153.987823 85.0 
154.021194 2233.0 
155.050156 808.0 
156.053833 566.0 
157.059387 309.0 
158.031311 436.0 
159.044357 1813.0 
160.048965 429.0 
161.019379 352.0 
161.060699 986.0 
162.069641 228.0 
162.280609 274.0 
162.970581 98.0 
163.035309 546.0 
164.01236 583.0 
165.016251 2528.0 
166.025574 1827.0 
167.048203 231.0 
167.632599 139.0 
168.051559 135.0 
169.064346 452.0 
169.496582 130.0 
170.022507 174.0 
171.044006 2606.0 
171.945389 233.0 
172.0495 1928.0 
173.059708 943.0 
174.987656 163.0 
175.045303 424.0 
176.045685 1285.0 
176.6828 180.0 
177.015244 315.0 
177.053192 609.0 
177.246368 98.0 
178.028137 155.0 
179.036453 611.0 
179.710159 157.0 
180.2789 175.0 
181.009445 94.0 
181.642044 247.0 
182.039154 439.0 
182.665802 345.0 
183.008224 155.0 
183.041473 1093.0 
183.55722 123.0 
184.04689 94.0 
184.682678 174.0 
185.281509 318.0 
186.032394 1567.0 
187.038422 3292.0 
187.07637 351.0 
188.041412 434.0 
189.021637 236.0 
189.054871 1457.0 
190.029068 473.0 
190.063904 701.0 
190.980438 185.0 
191.024734 343.0 
191.058029 209.0 
192.002945 309.0 
192.039124 1594.0 
192.98587 154.0 
193.011566 4272.0 
193.124664 145.0 
193.508331 117.0 
194.019669 591.0 
194.611404 250.0 
195.026764 105.0 
195.141479 164.0 
199.040817 498.0 
199.546158 137.0 
199.987747 300.0 
200.045792 16210.0 
200.098312 198.0 
201.050507 2549.0 
201.190323 112.0 
202.029892 143.0 
202.05867 458.0 
203.030807 3047.0 
203.578522 107.0 
203.745224 132.0 
203.799454 152.0 
204.03833 4026.0 
205.046768 1715.0 
205.941559 162.0 
206.017426 106.0 
206.055786 211.0 
207.031708 448.0 
207.067429 175.0 
208.016037 170.0 
208.793335 111.0 
209.682907 136.0 
210.013824 579.0 
211.035492 1271.0 
212.04512 457.0 
213.056076 143.0 
214.02388 456.0 
215.03096 1921.0 
215.076889 131.0 
216.028275 181.0 
216.404678 107.0 
217.009705 76.0 
217.050308 4914.0 
217.141571 212.0 
218.028122 473.0 
218.055725 2371.0 
219.023544 192.0 
219.05957 415.0 
219.2966 73.0 
219.951981 234.0 
220.621124 230.0 
222.202316 186.0 
223.070374 275.0 
225.056107 158.0 
227.033768 3197.0 
227.220245 239.0 
227.876663 119.0 
228.040665 34520.0 
228.29509 60.0 
228.845963 247.0 
229.048096 23315.0 
229.623795 140.0 
229.993225 160.0 
230.054031 3587.0 
230.89267 186.0 
231.027802 1832.0 
231.612213 103.0 
232.034256 1032.0 
233.045868 320.0 
234.020355 737.0 
234.80777 103.0 
236.051056 224.0 
237.69809 328.0 
238.025833 419.0 
239.026886 332.0 
240.035751 242.0 
241.052277 182.0 
243.026672 300.0 
243.049561 198.0 
243.081467 190.0 
243.171906 117.0 
243.347305 76.0 
243.64827 228.0 
244.7715 132.0 
245.04483 19749.0 
246.048096 4423.0 
247.052307 1088.0 
247.314133 201.0 
248.481903 305.0 
254.974289 192.0 
255.029099 2490.0 
255.103027 263.0 
255.670349 185.0 
256.036926 3783.0 
256.963898 145.0 
257.044403 20186.0 
257.742859 139.0 
258.046387 3030.0 
258.307434 71.0 
259.015961 524.0 
259.059296 168.0 
259.95636 211.0 
260.325012 125.0 
260.99469 486.0 
261.034332 89.0 
262.037201 203.0 
264.056396 288.0 
265.025604 171.0 
267.573364 214.0 
268.739136 271.0 
271.056793 94.0 
271.288544 106.0 
272.01944 247.0 
272.053284 206.0 
272.094086 97.0 
272.131714 128.0 
272.398041 93.0 
272.467834 239.0 
272.494446 175.0 
273.039612 8505.0 
273.30368 178.0 
273.543213 122.0 
273.790924 123.0 
274.046539 34165.0 
274.162933 228.0 
275.049225 6676.0 
275.600525 200.0 
276.023132 127.0 
276.057922 350.0 
276.650208 163.0 
277.036896 396.0 
277.08197 166.0 
278.021271 82.0 
278.21167 158.0 
280.933594 192.0 
281.862732 227.0 
283.026398 567.0 
284.034454 290.0 
284.312744 161.0 
284.746155 107.0 
284.964874 347.0 
285.037781 10249.0 
286.009491 170.0 
286.04422 1851.0 
287.432343 266.0 
288.022614 437.0 
288.061646 177.0 
290.536774 219.0 
297.266296 188.0 
297.963928 67.0 
299.054504 163.0 
299.605316 67.0 
299.737488 72.0 
300.013916 413.0 
300.216248 174.0 
300.381134 277.0 
300.781219 97.0 
300.881592 126.0 
301.033813 107075.0 
301.148163 551.0 
301.331146 138.0 
301.465027 82.0 
301.488678 152.0 
301.614838 208.0 
301.754791 69.0 
301.917236 346.0 
302.041687 236860.0 
302.118408 146.0 
302.147552 184.0 
302.286774 271.0 
302.395386 191.0 
302.435272 163.0 
302.477509 79.0 
302.525726 165.0 
302.562256 96.0 
302.602234 176.0 
302.752655 114.0 
302.836212 233.0 
302.928436 155.0 
303.045502 30295.0 
303.187256 174.0 
303.40448 196.0 
303.611847 132.0 
304.000763 218.0 
304.051697 361.0 
304.238647 139.0 
304.272675 96.0 
304.352966 141.0 
304.692261 121.0 
305.021667 126.0 
305.14386 257.0 
305.197205 94.0 
305.259277 244.0 
305.330048 136.0 
305.765228 73.0 
306.263519 147.0 
306.29718 65.0 
306.339966 136.0 
312.993622 105.0 
313.53714 195.0 
314.386719 271.0 
315.489105 150.0 
315.715515 163.0 
315.905243 98.0 
316.018982 219.0 
316.074432 150.0 
316.257416 104.0 
316.346588 134.0 
316.606964 110.0 
316.638428 68.0 
316.750671 250.0 
316.821167 142.0 
316.910645 140.0 
317.065155 183238.0 
317.183685 96.0 
317.324097 213.0 
317.382111 111.0 
317.445618 325.0 
317.597443 119.0 
317.924438 153.0 
318.070129 27980.0 
318.692017 116.0 
318.98999 71.0 
319.823639 86.0 
319.872192 209.0 
319.919342 66.0 
320.173706 89.0 
320.235291 80.0 
320.294464 195.0 
320.450287 67.0 
321.358582 143.0 
329.157227 110.0 
330.02774 71.0 
330.181061 122.0 
449.703827 70.0 
612.267029 70.0 
1012.732422 208.0 
1020.524597 135.0 
1294.357666 103.0 
1674.105957 216.0 
1908.450684 107.0 
1933.1875 294.0 
END IONS

BEGIN IONS
TITLE=Scan Number: 534
PEPMASS=401.25299
CHARGE=1+
MSLEVEL=2
FILENAME=E10_RE10_01_2866.mzXML
INSTRUMENT=ion trap
SCANS=534
SMILES=CCC(O)CC1CCC(O1)C(C)C(=O)OC(C)CC2CCC(O2)C(C)C(O)=O
INCHIKEY=JZCRGJSEBZCNAR-UHFFFAOYSA-N
70.035339 333.0 
70.072876 1283.0 
70.096649 83.0 
70.724632 255.0 
71.048454 3056.0 
71.768669 191.0 
72.040802 145.0 
75.041519 442.0 
75.478088 130.0 
76.579826 112.0 
76.965683 56.0 
77.037659 809.0 
78.372833 57.0 
78.434914 340.0 
79.053047 13606.0 
79.84819 118.0 
79.876465 51.0 
80.057487 568.0 
80.078064 47.0 
80.208939 170.0 
80.453957 112.0 
80.69445 233.0 
81.038376 315.0 
81.069267 33884.0 
81.177803 76.0 
81.294678 71.0 
81.650978 82.0 
82.073242 2867.0 
82.407562 588.0 
82.583786 385.0 
82.677742 303.0 
82.927048 267.0 
83.02272 162.0 
83.048973 7937.0 
83.085571 8144.0 
83.144562 336.0 
83.22905 82.0 
83.278038 57.0 
83.650383 177.0 
84.017159 51.0 
84.052246 890.0 
84.086563 291.0 
84.112747 57.0 
84.166588 48.0 
84.79126 78.0 
85.028389 402.0 
85.064331 3879.0 
85.593781 213.0 
87.043472 1704.0 
87.07914 137.0 
88.273064 284.0 
88.467102 164.0 
89.887909 219.0 
90.147278 76.0 
91.054108 5418.0 
92.058022 130.0 
92.905281 195.0 
93.024536 126.0 
93.069824 35183.0 
93.2444 268.0 
93.40416 143.0 
93.714622 131.0 
93.900063 211.0 
94.073059 1749.0 
94.1838 70.0 
94.659462 231.0 
95.048965 1431.0 
95.084976 2806.0 
95.149788 53.0 
95.31546 314.0 
95.597397 49.0 
96.050896 297.0 
96.380333 111.0 
96.432236 87.0 
97.042503 896.0 
97.06456 20156.0 
97.100937 23949.0 
97.178665 111.0 
97.245232 46.0 
98.070435 890.0 
98.101761 721.0 
98.384789 59.0 
98.558571 53.0 
98.943443 66.0 
99.04512 686.0 
99.07946 99.0 
100.289925 80.0 
100.359535 187.0 
100.398483 103.0 
100.812653 75.0 
100.958321 77.0 
101.058723 347.0 
102.048363 172.0 
102.840912 185.0 
103.493568 266.0 
105.04464 3708.0 
105.070198 2142.0 
106.056519 523.0 
106.071388 729.0 
106.109154 145.0 
107.010971 110.0 
107.085281 46062.0 
107.135818 140.0 
107.334572 225.0 
107.393806 92.0 
107.482994 59.0 
107.599442 58.0 
108.038414 230.0 
108.090057 2888.0 
108.678413 85.0 
109.065468 1477.0 
109.101471 570.0 
109.201195 102.0 
110.061699 187.0 
110.852699 111.0 
111.022095 86.0 
111.040474 323.0 
111.080208 31110.0 
111.117744 198.0 
111.1968 177.0 
111.23764 181.0 
112.060516 133.0 
112.084427 1671.0 
113.021606 159.0 
113.061295 366.0 
115.076462 1373.0 
117.047913 72.0 
117.067879 471.0 
119.059921 1533.0 
119.084976 1199.0 
121.062721 269.0 
121.101349 14791.0 
122.066689 177.0 
122.1045 924.0 
123.081039 2080.0 
123.25354 201.0 
124.391998 246.0 
124.492279 316.0 
124.584595 92.0 
124.731178 193.0 
124.853981 45.0 
125.029831 472.0 
125.059235 39892.0 
125.095688 102385.0 
125.299904 71.0 
125.350677 147.0 
125.429634 318.0 
125.467194 108.0 
125.647369 78.0 
126.062729 2300.0 
126.099998 5493.0 
126.801575 164.0 
126.923759 51.0 
127.019104 107.0 
127.085487 74.0 
127.105003 170.0 
127.13131 62.0 
129.055038 181.0 
129.091309 1030.0 
129.634262 110.0 
130.076324 177.0 
131.084732 501.0 
132.229599 169.0 
133.060028 196.0 
133.077118 483.0 
134.451904 45.0 
135.081802 372.0 
135.116425 11283.0 
136.119354 1816.0 
136.702759 181.0 
136.74115 132.0 
137.09671 3055.0 
137.131592 328.0 
137.489807 80.0 
138.100845 173.0 
138.813065 60.0 
138.888626 142.0 
139.110947 8288.0 
140.114456 1124.0 
142.729797 214.0 
142.98526 82.0 
143.070053 33371.0 
143.107742 1045.0 
143.248398 134.0 
143.304657 90.0 
143.445938 125.0 
143.494156 56.0 
144.0737 1315.0 
144.115112 143.0 
144.400574 53.0 
145.07869 513.0 
145.099731 2041.0 
145.234543 171.0 
146.10054 143.0 
149.094482 3006.0 
149.705566 201.0 
150.094482 398.0 
151.642441 235.0 
151.784943 53.0 
153.047134 354.0 
153.126633 3752.0 
154.131744 740.0 
158.333099 48.0 
163.111115 8735.0 
164.115112 241.0 
167.057007 484.0 
167.106674 28396.0 
168.109589 1811.0 
170.850815 109.0 
171.105545 181.0 
179.106735 226.0 
180.262009 83.0 
180.522354 113.0 
180.590775 149.0 
180.858521 51.0 
181.122116 94466.0 
181.218765 195.0 
181.427094 156.0 
181.495895 107.0 
181.90007 61.0 
182.125565 6225.0 
182.433701 219.0 
182.933716 86.0 
183.08493 281.0 
183.39357 71.0 
183.732834 70.0 
184.230743 185.0 
184.506821 55.0 
185.117157 13376.0 
186.120453 1592.0 
187.451294 176.0 
198.519852 93.0 
198.70517 52.0 
198.971359 58.0 
199.024628 234.0 
199.048965 81.0 
199.076767 378.0 
199.132614 38091.0 
199.326431 61.0 
199.478973 115.0 
200.136734 2622.0 
201.320679 64.0 
201.547684 135.0 
201.602768 178.0 
201.827286 198.0 
203.126205 2592.0 
204.126205 416.0 
210.61821 54.0 
212.896225 81.0 
216.478607 116.0 
217.143051 7345.0 
217.257843 91.0 
218.150497 427.0 
245.1763 159.0 
327.168518 224.0 
330.982666 40.0 
347.221008 236.0 
365.247986 291.0 
383.245483 955.0 
384.24884 186.0 
400.872467 136.0 
400.931427 189.0 
401.254791 962.0 
1249.729614 289.0 
1400.215088 261.0 
1434.800293 69.0 
1521.013916 117.0 
1569.249146 135.0 
1599.394043 147.0 
1634.997192 212.0 
1637.600098 156.0 
1638.530762 154.0 
1658.77356 223.0 
1736.261841 111.0 
1754.144409 220.0 
1756.838013 246.0 
1766.417114 239.0 
1773.607666 67.0 
1820.567871 269.0 
1842.987305 392.0 
1846.800171 89.0 
1862.568359 343.0 
1870.194946 138.0 
1890.742065 120.0 
1901.177612 259.0 
1918.296631 263.0 
1924.578125 217.0 
1928.414551 215.0 
1941.416138 256.0 
1944.858032 196.0 
1956.109619 260.0 
1982.394409 233.0 
END IONS

BEGIN IONS
TITLE=Scan Number: 535
PEPMASS=418.28
CHARGE=1+
MSLEVEL=2
FILENAME=E10_RE10_01_2866.mzXML
INSTRUMENT=ion trap
SCANS=535
SMILES=CCC(O)CC1CCC(O1)C(C)C(=O)OC(C)CC2CCC(O2)C(C)C(O)=O
INCHIKEY=JZCRGJSEBZCNAR-UHFFFAOYSA-N
70.034752 607.0 
70.073296 291.0 
71.048225 3542.0 
71.945854 150.0 
72.048439 323.0 
73.05986 227.0 
73.406998 319.0 
73.597755 257.0 
73.847626 255.0 
73.864891 241.0 
75.044037 884.0 
75.163712 314.0 
77.039124 180.0 
77.349243 284.0 
79.053833 7844.0 
79.364372 282.0 
79.884659 134.0 
80.056007 308.0 
80.239159 166.0 
80.32412 92.0 
80.907127 135.0 
81.06926 25181.0 
81.184898 89.0 
82.070717 824.0 
82.277428 186.0 
83.048805 7379.0 
83.084373 6250.0 
83.597778 338.0 
84.048836 325.0 
84.083992 234.0 
84.417839 125.0 
85.028648 133.0 
85.064529 2425.0 
86.06881 135.0 
87.045029 382.0 
87.418533 210.0 
89.818047 73.0 
89.847717 167.0 
91.035484 174.0 
91.053085 3331.0 
91.118782 173.0 
92.056557 449.0 
92.219208 63.0 
92.943977 128.0 
93.069527 26671.0 
93.165833 70.0 
94.000305 270.0 
94.073463 1921.0 
95.05011 1810.0 
95.085953 1858.0 
96.02597 153.0 
96.256668 133.0 
96.910706 102.0 
97.064575 15772.0 
97.100861 23408.0 
97.572235 109.0 
98.070068 693.0 
98.104591 1957.0 
98.525085 100.0 
98.83741 148.0 
99.04071 267.0 
99.058266 237.0 
101.021362 148.0 
101.977196 254.0 
103.037102 140.0 
103.054535 176.0 
103.999069 264.0 
104.873177 77.0 
105.046333 1509.0 
105.069069 3268.0 
106.046547 99.0 
106.076485 116.0 
107.009171 119.0 
107.04834 410.0 
107.085533 44725.0 
107.75708 153.0 
107.846947 282.0 
107.87233 134.0 
108.053352 137.0 
108.088974 4359.0 
108.423065 81.0 
108.775757 171.0 
108.885071 88.0 
109.064217 1299.0 
109.100014 1259.0 
109.27047 163.0 
110.689301 243.0 
111.005188 258.0 
111.080177 31816.0 
111.285606 269.0 
111.661163 143.0 
111.897331 186.0 
111.985382 148.0 
112.084595 969.0 
112.693398 77.0 
112.850342 157.0 
112.905479 135.0 
113.060898 144.0 
113.09491 138.0 
115.074295 956.0 
117.065742 156.0 
118.455315 217.0 
118.940758 238.0 
119.034187 206.0 
119.06263 776.0 
119.084534 1496.0 
120.086967 91.0 
120.72319 116.0 
121.064819 1061.0 
121.100723 10089.0 
122.071465 138.0 
122.108078 497.0 
123.013275 568.0 
123.078903 1249.0 
124.082809 257.0 
124.686699 158.0 
124.98864 166.0 
125.021309 252.0 
125.059402 36929.0 
125.095764 107132.0 
125.145454 84.0 
125.218346 65.0 
125.322823 63.0 
125.54538 225.0 
125.731674 63.0 
126.061981 2905.0 
126.098763 7308.0 
126.182106 97.0 
126.466103 106.0 
126.765732 144.0 
126.87635 98.0 
126.962112 202.0 
127.073814 327.0 
127.103569 244.0 
127.179153 134.0 
127.389587 62.0 
128.300095 276.0 
129.049789 299.0 
129.090469 649.0 
130.093262 198.0 
132.088638 161.0 
133.009598 83.0 
133.065323 249.0 
135.065811 238.0 
135.087967 580.0 
135.116348 11347.0 
135.347351 66.0 
136.081436 156.0 
136.119064 1185.0 
136.880188 121.0 
137.063156 104.0 
137.094604 1705.0 
137.263702 108.0 
138.09491 222.0 
138.318817 70.0 
139.07515 890.0 
139.111816 11077.0 
140.11499 189.0 
141.021683 278.0 
142.077377 172.0 
142.66124 118.0 
142.882721 83.0 
142.999344 74.0 
143.07016 46675.0 
143.105911 2225.0 
143.294601 74.0 
143.879227 78.0 
144.071625 1877.0 
144.107498 391.0 
145.076935 268.0 
145.101379 1729.0 
145.297455 175.0 
146.101334 145.0 
147.042206 112.0 
147.61972 86.0 
149.066177 218.0 
149.095367 2000.0 
151.026794 160.0 
151.112106 429.0 
151.477707 218.0 
153.126617 3715.0 
154.018936 63.0 
154.130432 106.0 
154.345764 119.0 
155.038269 107.0 
155.478348 114.0 
157.126968 106.0 
159.119141 108.0 
160.632309 169.0 
160.889221 86.0 
161.293259 308.0 
162.83316 67.0 
163.111816 9678.0 
163.158966 165.0 
163.19043 150.0 
163.978928 192.0 
164.117188 911.0 
164.581589 104.0 
165.110748 103.0 
166.718201 131.0 
167.106339 37803.0 
168.049911 195.0 
168.110443 3069.0 
168.85437 156.0 
168.911713 143.0 
173.039017 147.0 
175.385483 137.0 
177.692688 93.0 
178.204056 62.0 
179.101883 146.0 
179.49527 268.0 
180.080154 134.0 
180.62674 114.0 
180.694748 69.0 
180.790543 319.0 
180.919708 285.0 
181.05928 385.0 
181.122498 112596.0 
181.221512 75.0 
181.252655 154.0 
181.2798 97.0 
181.435822 200.0 
181.669418 150.0 
182.092789 170.0 
182.125854 10102.0 
182.174408 80.0 
182.644226 85.0 
182.781265 124.0 
183.102051 540.0 
183.251678 66.0 
183.342636 74.0 
183.621643 65.0 
184.431808 124.0 
184.848236 145.0 
185.012711 118.0 
185.083725 585.0 
185.117432 28140.0 
185.470825 124.0 
186.029297 162.0 
186.118286 3225.0 
186.624161 305.0 
186.946472 76.0 
187.200165 118.0 
187.696854 218.0 
193.007584 82.0 
195.082306 71.0 
196.065353 289.0 
196.869263 164.0 
198.903137 101.0 
199.023285 169.0 
199.054947 596.0 
199.077301 485.0 
199.133194 81299.0 
199.337875 114.0 
199.356384 147.0 
199.465729 87.0 
199.528458 84.0 
199.690369 71.0 
199.730011 308.0 
199.820038 131.0 
200.136673 6344.0 
200.398239 109.0 
200.576477 74.0 
201.135101 130.0 
201.210571 95.0 
201.52388 111.0 
201.710815 166.0 
201.775146 170.0 
201.833969 103.0 
201.859955 111.0 
203.129379 8339.0 
204.097061 169.0 
204.128387 175.0 
205.079971 121.0 
215.058594 331.0 
216.865021 118.0 
217.037903 96.0 
217.081604 143.0 
217.143097 22277.0 
217.629684 146.0 
217.684769 110.0 
218.114548 141.0 
218.145645 2220.0 
219.061127 284.0 
225.091232 168.0 
225.129562 132.0 
227.097977 189.0 
228.025665 84.0 
229.110245 97.0 
255.098297 119.0 
256.846863 170.0 
260.049347 103.0 
273.101013 394.0 
284.421051 152.0 
287.161499 167.0 
289.091553 140.0 
291.109558 760.0 
309.204926 298.0 
327.177185 509.0 
328.177002 167.0 
347.211487 294.0 
348.223846 173.0 
365.229889 1783.0 
366.233032 573.0 
383.188049 221.0 
383.241913 5937.0 
384.24585 796.0 
384.418549 173.0 
385.244843 228.0 
398.625092 95.0 
401.081818 111.0 
401.195709 108.0 
401.25647 11827.0 
401.638397 119.0 
402.260071 1422.0 
420.426117 149.0 
439.208618 749.0 
731.18988 82.0 
988.587891 292.0 
1179.105835 149.0 
1184.613525 128.0 
1249.887573 361.0 
1325.66333 376.0 
1380.088257 261.0 
1524.178223 274.0 
1531.244629 150.0 
1540.724976 96.0 
1572.563599 259.0 
1599.784424 288.0 
1621.365234 153.0 
1627.242188 119.0 
1683.976807 263.0 
1729.074951 273.0 
1729.928833 173.0 
1781.299194 238.0 
1782.324829 111.0 
1802.970947 186.0 
1804.319214 312.0 
1828.442139 77.0 
1861.874146 200.0 
1863.666016 128.0 
1868.46167 122.0 
1904.126099 187.0 
1907.098511 285.0 
1913.165161 219.0 
1951.845947 283.0 
1962.469116 157.0 
1963.598999 226.0 
1976.87793 174.0 
1983.200195 186.0 
1986.21228 254.0 
END IONS

BEGIN IONS
TITLE=Scan Number: 536
PEPMASS=423.23499
CHARGE=1+
MSLEVEL=2
FILENAME=E10_RE10_01_2866.mzXML
INSTRUMENT=ion trap
SCANS=536
SMILES=CCC(O)CC1CCC(O1)C(C)C(=O)OC(C)CC2CCC(O2)C(C)C(O)=O
INCHIKEY=JZCRGJSEBZCNAR-UHFFFAOYSA-N
82.568192 182.0 
138.062744 133.0 
178.037735 138.0 
195.127243 150.0 
207.069763 148.0 
207.105469 212.0 
207.468842 114.0 
214.799362 190.0 
221.114136 615.0 
225.073624 120.0 
225.111298 3272.0 
225.165833 101.0 
225.502701 164.0 
226.044403 147.0 
226.118988 496.0 
231.140198 162.0 
237.285736 89.0 
239.066299 131.0 
239.091049 297.0 
239.125015 5376.0 
239.466461 114.0 
240.132233 1028.0 
241.082108 133.0 
242.045395 119.0 
242.678619 142.0 
257.121918 203.0 
327.163879 188.0 
377.41098 261.0 
421.537201 79.0 
423.099915 152.0 
423.144226 228.0 
423.236084 28982.0 
423.351349 89.0 
423.493073 146.0 
424.071167 150.0 
424.240936 4849.0 
END IONS

BEGIN IONS
TITLE=Scan Number: 542
PEPMASS=255.138
CHARGE=1+
MSLEVEL=2
FILENAME=C8_BC8_01_2852.mzXML
INSTRUMENT=ion trap
SCANS=542
SMILES=OC(CCC1=CC=CC=C1)CC(=O)C2=CC=CC=C2
INCHIKEY=QJUWGGININGVSC-UHFFFAOYSA-N
70.402458 221.0 
71.203545 396.0 
72.662323 233.0 
77.038689 5384.0 
77.188873 249.0 
77.479706 125.0 
78.037865 191.0 
78.476883 110.0 
81.031151 169.0 
89.036156 192.0 
89.947533 100.0 
91.053917 20855.0 
91.09819 201.0 
92.059921 941.0 
92.290504 146.0 
94.346542 178.0 
95.048866 7060.0 
96.050957 765.0 
96.773003 92.0 
98.761772 78.0 
99.630981 278.0 
103.05307 402.0 
105.003929 339.0 
105.036331 80243.0 
105.283936 118.0 
106.038811 3178.0 
106.57692 127.0 
106.631775 175.0 
106.734879 113.0 
106.888771 84.0 
107.047943 117.0 
109.335281 109.0 
114.906029 217.0 
114.961052 155.0 
115.053429 36394.0 
115.140221 306.0 
116.058487 5193.0 
116.746277 111.0 
116.809906 154.0 
116.840561 247.0 
116.973915 123.0 
117.069763 94633.0 
117.111862 127.0 
117.475052 159.0 
118.07299 6669.0 
118.177429 334.0 
118.757301 146.0 
118.911819 156.0 
119.054382 87.0 
119.093292 133.0 
120.60746 154.0 
121.064384 1621.0 
122.068001 116.0 
127.054558 198.0 
129.067917 124.0 
131.046005 121.0 
131.090347 215.0 
133.066559 210.0 
136.047012 350.0 
137.010269 416.0 
141.066208 120.0 
142.077133 146.0 
144.06636 115.0 
145.062683 172.0 
156.016388 130.0 
157.068146 247.0 
159.077271 104.0 
164.026703 303.0 
193.100479 255.0 
204.080963 226.0 
236.476807 277.0 
237.12735 1971.0 
237.748581 153.0 
238.129059 197.0 
1265.728149 274.0 
1650.994873 259.0 
1663.192383 160.0 
1949.506714 108.0 
1965.745605 349.0 
END IONS

BEGIN IONS
TITLE=Scan Number: 544
PEPMASS=285.039
CHARGE=1+
MSLEVEL=2
FILENAME=C8_BC8_01_2852.mzXML
INSTRUMENT=ion trap
SCANS=544
SMILES=OC(=O)C1=CC(O)=C2C(=O)C3=C(O)C=CC=C3C(=O)C2=C1
INCHIKEY=FCDLCPWAQCPTKC-UHFFFAOYSA-N
71.619194 297.0 
89.036476 221.0 
115.053764 306.0 
121.029839 741.0 
122.044426 148.0 
128.060165 419.0 
129.068008 195.0 
155.048416 1595.0 
156.04892 179.0 
157.068619 457.0 
165.011917 112.0 
165.037613 191.0 
167.042328 188.0 
183.041336 1039.0 
211.038269 719.0 
213.051804 162.0 
239.028839 181.0 
240.039795 324.0 
240.873978 176.0 
241.050537 853.0 
242.053619 543.0 
267.017548 533.0 
285.038788 2310.0 
286.046753 383.0 
END IONS

BEGIN IONS
TITLE=Scan Number: 546
PEPMASS=305.10199
CHARGE=1+
MSLEVEL=2
FILENAME=C8_BC8_01_2852.mzXML
INSTRUMENT=ion trap
SCANS=546
SMILES=CC1=CC(=O)C2=C(CC(=O)CC(O)CC(O)=O)C=CC=C2O1
INCHIKEY=QFVUWPJXYMYLLE-UHFFFAOYSA-N
71.012009 2034.0 
72.003403 84.0 
72.027077 195.0 
72.080719 274.0 
76.430206 284.0 
77.146149 55.0 
78.047333 244.0 
79.182663 99.0 
79.35183 193.0 
81.032822 394.0 
81.417656 95.0 
85.02581 1289.0 
85.258888 118.0 
85.425827 239.0 
86.030594 134.0 
86.986115 189.0 
89.03949 119.0 
90.04583 115.0 
90.364853 275.0 
90.859093 178.0 
91.053741 931.0 
92.647888 212.0 
95.013855 1334.0 
95.095146 189.0 
95.570602 85.0 
95.636551 228.0 
96.463173 179.0 
97.024918 208.0 
99.178825 194.0 
99.311119 180.0 
100.182755 109.0 
100.794746 136.0 
103.052338 656.0 
103.149803 195.0 
104.334572 86.0 
105.031334 1355.0 
105.068672 197.0 
106.038841 830.0 
106.904869 147.0 
108.055878 1140.0 
108.529747 66.0 
109.064926 169.0 
110.378845 170.0 
110.729912 310.0 
111.237892 179.0 
112.672501 308.0 
113.024483 1323.0 
114.042397 266.0 
114.304893 151.0 
114.754547 70.0 
114.903465 110.0 
115.053749 5067.0 
115.580818 260.0 
115.767151 166.0 
116.060143 1330.0 
116.09417 158.0 
116.931526 206.0 
117.07045 1089.0 
117.869087 208.0 
118.073563 277.0 
118.148056 202.0 
119.058563 356.0 
119.347733 230.0 
119.757935 272.0 
120.079308 153.0 
121.71917 145.0 
122.464821 155.0 
123.021393 77.0 
123.57103 313.0 
124.005249 67.0 
126.043434 402.0 
127.038933 116.0 
127.05468 164.0 
128.062393 3590.0 
128.957413 73.0 
129.069885 2769.0 
130.076157 317.0 
130.804352 186.0 
131.048126 1905.0 
131.075668 145.0 
131.297852 167.0 
132.056519 572.0 
132.358459 253.0 
132.821854 303.0 
133.029831 353.0 
133.052673 125.0 
133.160294 217.0 
133.598663 275.0 
134.036621 1628.0 
134.063202 69.0 
135.043869 1168.0 
136.499207 166.0 
139.051544 1020.0 
140.058395 590.0 
140.380157 340.0 
140.576828 155.0 
140.982681 205.0 
141.043091 175.0 
141.068222 713.0 
142.076904 757.0 
143.060837 656.0 
143.085571 985.0 
143.900299 241.0 
143.956894 210.0 
144.056351 3739.0 
144.533844 245.0 
144.889236 172.0 
144.968018 263.0 
145.00209 88.0 
145.064682 18049.0 
145.114914 99.0 
146.068909 3470.0 
146.682663 79.0 
147.025757 266.0 
147.044632 668.0 
147.079117 564.0 
147.423523 128.0 
148.042542 169.0 
148.08728 138.0 
148.144287 113.0 
149.042526 110.0 
149.267792 281.0 
150.083923 217.0 
151.040314 435.0 
152.048401 1417.0 
152.060928 1416.0 
153.031326 418.0 
153.070023 813.0 
153.172836 104.0 
154.07666 1047.0 
155.058273 4152.0 
155.804916 195.0 
156.065201 268.0 
156.091003 252.0 
157.055862 323.0 
157.071228 345.0 
157.104324 158.0 
157.247772 155.0 
158.029999 344.0 
158.071991 133.0 
158.422623 139.0 
158.804367 385.0 
158.893631 300.0 
159.045547 2382.0 
160.052689 452.0 
160.084351 112.0 
161.603943 112.0 
161.778641 316.0 
162.02536 164.0 
162.054062 153.0 
162.901642 86.0 
163.593918 257.0 
165.070084 1370.0 
165.243927 323.0 
167.061844 174.0 
167.085464 323.0 
168.05394 434.0 
168.076324 260.0 
168.385315 165.0 
168.773239 314.0 
169.066162 1934.0 
170.037292 318.0 
170.067062 905.0 
170.608322 197.0 
171.05275 320.0 
171.078445 2468.0 
171.154907 127.0 
171.41687 112.0 
171.738449 108.0 
172.051331 3591.0 
172.085999 858.0 
172.118057 115.0 
172.154663 284.0 
172.255157 99.0 
172.355942 263.0 
172.663437 75.0 
172.696671 54.0 
172.933655 172.0 
173.004578 2038.0 
173.059647 405165.0 
173.140594 218.0 
173.17691 203.0 
173.253799 63.0 
173.304214 197.0 
173.47377 99.0 
173.669067 201.0 
173.801575 182.0 
173.88269 436.0 
173.942169 230.0 
173.992142 462.0 
174.064484 72907.0 
174.814941 90.0 
175.002869 95.0 
175.074707 16084.0 
175.144592 136.0 
175.227325 142.0 
175.26442 146.0 
175.320496 129.0 
175.38829 235.0 
175.403915 298.0 
175.448395 278.0 
175.514954 326.0 
175.586548 171.0 
175.645798 113.0 
175.810623 88.0 
175.895035 93.0 
176.018051 98.0 
176.050858 919.0 
176.078674 1504.0 
176.141602 97.0 
176.303116 93.0 
176.48259 331.0 
176.901352 212.0 
177.017471 54.0 
177.070282 188.0 
177.16748 78.0 
177.43515 141.0 
177.842682 133.0 
178.262283 71.0 
179.043655 103.0 
179.081543 204.0 
179.124176 284.0 
179.329437 185.0 
180.187988 228.0 
180.658829 107.0 
181.064026 1882.0 
182.06926 1631.0 
182.101624 120.0 
183.045258 949.0 
183.081299 770.0 
183.954697 110.0 
184.053055 954.0 
184.601456 101.0 
185.013687 111.0 
185.058411 2249.0 
185.873138 99.0 
185.952927 129.0 
186.069733 329.0 
186.12381 58.0 
186.31601 70.0 
186.534058 67.0 
187.038071 9465.0 
187.076584 3018.0 
187.181519 176.0 
187.635056 110.0 
188.042236 525.0 
188.081512 569.0 
189.511948 197.0 
190.080765 159.0 
192.05658 245.0 
192.719604 56.0 
192.812668 120.0 
193.066132 199.0 
193.759155 270.0 
194.073395 588.0 
194.371155 92.0 
194.585373 164.0 
195.081833 9888.0 
196.087585 3435.0 
196.575806 111.0 
196.956192 78.0 
197.061447 1016.0 
197.094208 1175.0 
198.00238 160.0 
198.024216 228.0 
198.067276 21253.0 
198.252975 119.0 
198.358063 108.0 
198.830139 59.0 
199.075272 36000.0 
199.507645 200.0 
199.573608 114.0 
200.079788 6330.0 
200.410477 90.0 
200.526352 105.0 
200.644684 115.0 
200.799683 213.0 
200.888 185.0 
200.936874 79.0 
201.054657 114979.0 
201.127792 164.0 
201.155899 104.0 
201.181366 333.0 
201.530792 90.0 
201.78894 121.0 
201.840164 65.0 
202.059219 8773.0 
203.297867 178.0 
203.326111 70.0 
203.392471 118.0 
203.440277 57.0 
203.500626 110.0 
203.556 112.0 
203.681366 94.0 
203.773605 97.0 
204.870392 150.0 
206.077026 128.0 
207.078827 675.0 
208.050049 251.0 
208.088348 277.0 
209.060104 705.0 
210.022888 209.0 
210.066467 318.0 
210.188721 58.0 
210.788361 123.0 
210.868698 92.0 
211.03302 428.0 
211.074463 2933.0 
211.171921 142.0 
212.079987 816.0 
212.589615 63.0 
212.740692 145.0 
212.805328 295.0 
212.923248 147.0 
213.091187 31166.0 
213.155151 96.0 
213.243866 123.0 
213.424988 55.0 
214.055252 610.0 
214.095245 3649.0 
214.14415 256.0 
214.856857 370.0 
214.91449 248.0 
215.072372 1448.0 
215.107376 644.0 
215.77771 136.0 
216.073334 107.0 
216.621689 73.0 
217.087891 5867.0 
218.090408 443.0 
219.007065 132.0 
220.163345 178.0 
220.318588 82.0 
220.735809 82.0 
222.026596 116.0 
222.068161 4603.0 
222.801025 196.0 
222.931946 133.0 
222.981491 69.0 
223.075272 36496.0 
223.336563 110.0 
223.38974 110.0 
223.553635 71.0 
223.604919 86.0 
223.622284 116.0 
224.007736 256.0 
224.080521 13889.0 
224.20517 57.0 
225.020981 187.0 
225.050644 182.0 
225.091095 8232.0 
225.236603 114.0 
225.602859 138.0 
225.802719 130.0 
226.060867 155.0 
226.090759 828.0 
227.069534 1606.0 
227.772781 75.0 
228.069519 117.0 
228.103027 133.0 
229.047516 232.0 
239.945572 230.0 
241.049667 496.0 
241.086136 30806.0 
241.249435 294.0 
241.291428 202.0 
242.088623 4696.0 
242.139359 183.0 
243.018158 108.0 
243.102509 5827.0 
243.566101 58.0 
244.066803 214.0 
244.10405 434.0 
244.172195 104.0 
246.078995 239.0 
249.158401 197.0 
250.03447 291.0 
250.061157 218.0 
250.963257 105.0 
251.037354 486.0 
251.070724 15411.0 
251.134109 55.0 
252.075104 2692.0 
252.108551 180.0 
252.715714 117.0 
253.448135 204.0 
256.416779 98.0 
257.382416 192.0 
260.844666 177.0 
267.574738 146.0 
268.250671 113.0 
268.574249 100.0 
268.671783 95.0 
268.769165 187.0 
268.927277 143.0 
269.000916 474.0 
269.081451 150750.0 
269.15802 275.0 
269.317444 73.0 
269.619141 107.0 
269.694214 193.0 
270.029175 278.0 
270.086517 20982.0 
271.084686 88.0 
271.893982 72.0 
272.005402 73.0 
272.036224 257.0 
272.145233 95.0 
272.512268 70.0 
280.978363 98.0 
285.068115 305.0 
285.434601 71.0 
285.94458 123.0 
286.204956 167.0 
286.342133 195.0 
286.403168 91.0 
286.601959 91.0 
286.850525 107.0 
286.998657 467.0 
287.028564 629.0 
287.092438 118604.0 
287.173553 80.0 
287.577881 326.0 
287.966766 111.0 
288.011414 87.0 
288.096619 14763.0 
288.187286 240.0 
289.261505 130.0 
289.381287 65.0 
289.793213 120.0 
289.970825 124.0 
290.104645 108.0 
290.15564 125.0 
290.197296 106.0 
290.559998 173.0 
290.834686 158.0 
291.093903 66.0 
292.444244 118.0 
299.986633 73.0 
305.100708 312.0 
305.548615 134.0 
329.313782 87.0 
392.087463 171.0 
466.759094 111.0 
1408.842896 355.0 
1639.263184 69.0 
1745.175415 134.0 
1805.275879 264.0 
1821.367188 79.0 
1836.448242 244.0 
END IONS

BEGIN IONS
TITLE=Scan Number: 548
PEPMASS=626.20801
CHARGE=1+
MSLEVEL=2
FILENAME=C8_BC8_01_2852.mzXML
INSTRUMENT=ion trap
SCANS=548
SMILES=COC1=CC=C(C=C1)C2=C(O[C@@H]3O[C@H](CO)[C@@H](O)[C@H](O)[C@H]3O)C(=O)C4=C(O2)C=C(O[C@@H]5O[C@@H](C)[C@H](O)[C@@H](O)[C@H]5O)C=C4O
INCHIKEY=OFKKUHQXUNAUKP-CQNMNSRFSA-N
71.012451 178.0 
72.137398 163.0 
77.885902 332.0 
80.944702 309.0 
83.276711 321.0 
83.839584 160.0 
86.39801 107.0 
90.107986 290.0 
90.524078 125.0 
101.304779 224.0 
104.75145 119.0 
108.957741 210.0 
110.740822 291.0 
111.193024 237.0 
113.021751 334.0 
118.800194 294.0 
123.599464 155.0 
126.470772 159.0 
126.631393 130.0 
129.345474 91.0 
131.127258 130.0 
138.058105 188.0 
146.081497 188.0 
148.03978 205.0 
148.087067 139.0 
151.026993 113.0 
155.028854 199.0 
155.061508 110.0 
158.057938 241.0 
160.85965 123.0 
161.101425 200.0 
161.980698 219.0 
162.093994 126.0 
163.286194 189.0 
163.822678 236.0 
172.121964 266.0 
173.00882 658.0 
173.059418 31882.0 
174.061325 2972.0 
174.16243 159.0 
175.080902 1244.0 
175.194794 304.0 
183.074661 94.0 
186.165894 194.0 
187.039841 436.0 
187.081589 195.0 
188.039246 121.0 
190.23822 207.0 
193.870285 161.0 
195.077011 143.0 
196.091415 139.0 
196.499069 317.0 
197.506638 101.0 
198.07103 512.0 
198.730499 123.0 
199.075836 4888.0 
200.083176 303.0 
200.325592 120.0 
200.625793 213.0 
201.054184 47331.0 
202.056122 6727.0 
203.062622 535.0 
203.450867 335.0 
203.571548 87.0 
210.046219 139.0 
210.067459 207.0 
211.069092 362.0 
212.079529 153.0 
213.049316 137.0 
213.093475 4857.0 
213.30838 146.0 
214.097244 481.0 
214.940414 122.0 
215.071365 676.0 
215.113815 217.0 
216.07486 131.0 
216.101273 220.0 
216.787064 107.0 
217.087112 3909.0 
217.224533 157.0 
217.600586 142.0 
218.090759 480.0 
218.225159 92.0 
223.073105 2806.0 
224.007721 203.0 
224.08107 532.0 
224.453903 205.0 
225.091858 2143.0 
227.071182 899.0 
229.623077 226.0 
232.033707 175.0 
235.141464 170.0 
236.056091 187.0 
237.792847 200.0 
239.079987 170.0 
240.576111 120.0 
240.689651 185.0 
240.995911 178.0 
241.085892 13339.0 
241.326324 188.0 
242.088684 1588.0 
243.071442 184.0 
243.101791 3951.0 
244.095306 121.0 
245.077545 508.0 
246.381302 228.0 
246.895859 278.0 
247.065948 397.0 
249.024033 296.0 
251.070801 6505.0 
252.076569 365.0 
252.583466 305.0 
253.077393 150.0 
254.773697 176.0 
254.975998 394.0 
255.033844 900.0 
264.042755 129.0 
265.054657 297.0 
267.055115 229.0 
267.892395 150.0 
268.841705 243.0 
268.943848 189.0 
269.037109 1724.0 
269.081238 66781.0 
269.194336 207.0 
270.08374 12509.0 
271.088348 1279.0 
271.829987 84.0 
272.991028 226.0 
273.04187 853.0 
273.072906 176.0 
273.164764 352.0 
273.381256 344.0 
273.56427 257.0 
274.05069 137.0 
275.020874 92.0 
275.146759 103.0 
275.469879 170.0 
276.42099 255.0 
279.042206 163.0 
280.040344 226.0 
281.049377 416.0 
282.046539 123.0 
284.78064 136.0 
285.00885 103.0 
285.404053 97.0 
285.658569 111.0 
285.977325 115.0 
286.084106 126.0 
286.238739 100.0 
286.444611 160.0 
286.56076 125.0 
286.589417 150.0 
286.931915 609.0 
286.995636 206.0 
287.09137 155399.0 
287.493927 209.0 
287.984497 201.0 
288.038055 534.0 
288.095764 25904.0 
288.610046 144.0 
288.780304 161.0 
289.095917 2221.0 
289.479492 106.0 
289.614166 136.0 
290.009796 135.0 
290.323395 94.0 
291.055359 2251.0 
292.061279 209.0 
294.045898 284.0 
298.057465 111.0 
299.056305 786.0 
300.070557 393.0 
301.041992 183.0 
302.575623 249.0 
302.697906 110.0 
303.14801 118.0 
303.682159 104.0 
303.957977 125.0 
304.00766 89.0 
304.398743 247.0 
304.97702 305.0 
305.011444 153.0 
305.102448 66557.0 
305.20813 122.0 
305.295685 87.0 
305.439331 119.0 
305.564789 136.0 
306.027832 117.0 
306.106171 8705.0 
306.199585 211.0 
306.377289 153.0 
307.095154 248.0 
307.713531 98.0 
308.041351 115.0 
308.107941 173.0 
308.18222 151.0 
308.659821 159.0 
309.033569 96.0 
309.059479 181.0 
312.096924 219.0 
313.032104 196.0 
315.370087 89.0 
317.072754 1741.0 
318.079987 166.0 
319.044525 109.0 
320.077972 319.0 
321.170258 277.0 
322.11615 130.0 
322.142059 177.0 
323.114746 166.0 
327.084747 218.0 
331.754578 211.0 
343.056702 545.0 
355.510223 158.0 
369.060303 235.0 
369.171906 129.0 
384.074768 130.0 
390.098358 159.0 
400.758881 224.0 
437.220428 126.0 
442.050842 230.0 
470.86969 235.0 
471.077271 148.0 
471.114807 1023.0 
471.921906 137.0 
489.12088 292.0 
490.12796 112.0 
497.139496 1205.0 
523.139404 891.0 
531.256592 168.0 
533.115784 122.0 
541.137512 143.0 
543.142517 179.0 
548.165894 157.0 
549.120911 104.0 
559.081848 126.0 
559.133057 92.0 
560.148865 187.0 
568.179626 123.0 
585.153137 160.0 
586.155151 84.0 
587.120361 167.0 
590.447144 195.0 
627.240173 131.0 
646.41156 95.0 
647.139893 499.0 
718.85675 138.0 
1618.666626 158.0 
1898.806641 230.0 
END IONS

BEGIN IONS
TITLE=Scan Number: 557
PEPMASS=405.18201
CHARGE=1+
MSLEVEL=2
FILENAME=C7_RC7_01_2929.mzXML
INSTRUMENT=ion trap
SCANS=557
SMILES=CC1CCC(=O)C(C)C1(C)CC(O)C(\C)=C\CC2=C(O)C(Cl)=C(C)C(C=O)=C2O
INCHIKEY=XFTFIFNAWKMLKL-WUXMJOGZSA-N
70.05117 169.0 
77.037926 337.0 
79.052856 1926.0 
79.075851 301.0 
80.056068 236.0 
81.037117 144.0 
81.068802 1959.0 
82.076561 223.0 
83.048141 1113.0 
83.08593 1322.0 
84.052139 269.0 
89.031479 248.0 
91.23967 100.0 
92.05703 328.0 
93.070496 4850.0 
94.07328 142.0 
95.021004 139.0 
95.049416 1065.0 
95.085518 3554.0 
95.279335 230.0 
96.088623 262.0 
96.111885 227.0 
97.064583 36105.0 
97.100731 10211.0 
97.201134 149.0 
97.452072 124.0 
98.068413 1778.0 
98.108467 364.0 
99.08223 141.0 
99.47393 104.0 
103.050842 96.0 
104.211586 397.0 
104.757988 120.0 
105.02626 156.0 
105.045456 2014.0 
105.068253 1914.0 
106.073151 461.0 
107.036903 169.0 
107.053299 227.0 
107.085289 1923.0 
108.055847 373.0 
108.089821 209.0 
109.100273 2307.0 
110.068657 254.0 
110.105606 637.0 
110.954872 89.0 
111.078926 394.0 
111.115921 4876.0 
112.11879 153.0 
113.019653 204.0 
113.095016 488.0 
113.40715 140.0 
114.704453 150.0 
115.015198 231.0 
117.070702 308.0 
118.427826 323.0 
118.693283 224.0 
119.08754 815.0 
121.071777 607.0 
121.100807 8818.0 
122.105652 530.0 
123.080574 328.0 
123.115906 1063.0 
124.084496 541.0 
125.094139 411.0 
126.48864 388.0 
127.106773 141.0 
128.062363 159.0 
129.009048 161.0 
129.026306 179.0 
129.072861 198.0 
129.560364 273.0 
131.056076 345.0 
131.08493 652.0 
133.069504 548.0 
133.100571 2415.0 
134.106735 132.0 
135.044662 613.0 
135.11554 976.0 
135.644989 310.0 
136.051941 168.0 
136.87709 383.0 
137.02359 321.0 
137.094574 692.0 
137.133621 156.0 
138.290085 94.0 
139.00415 76.0 
139.034409 698.0 
139.074356 558.0 
139.11087 28239.0 
140.115143 3112.0 
140.622574 171.0 
141.011169 891.0 
141.349976 119.0 
141.929001 76.0 
142.079285 158.0 
142.98793 194.0 
143.023422 1702.0 
143.051895 197.0 
143.084259 247.0 
143.356522 184.0 
143.485306 166.0 
144.028412 145.0 
145.06488 122.0 
145.10199 782.0 
146.108231 137.0 
147.021744 267.0 
147.048569 536.0 
147.083969 277.0 
147.113815 1073.0 
147.676254 198.0 
148.048157 181.0 
148.515335 225.0 
149.056168 153.0 
149.094147 245.0 
149.133392 1238.0 
150.063416 412.0 
151.067398 178.0 
151.112228 401.0 
153.012222 124.0 
153.06633 223.0 
153.125305 189.0 
153.410583 96.0 
154.078033 166.0 
154.644547 78.0 
155.025345 1805.0 
155.057098 186.0 
155.084976 450.0 
156.028625 130.0 
156.048309 152.0 
156.076752 156.0 
157.037048 232.0 
159.115997 388.0 
159.47345 140.0 
160.072861 157.0 
160.392776 306.0 
161.023743 173.0 
161.055542 182.0 
161.133469 676.0 
162.667557 147.0 
163.029419 122.0 
163.146576 404.0 
164.043762 307.0 
164.949249 294.0 
165.0578 299.0 
165.12973 449.0 
167.026398 230.0 
167.078537 591.0 
168.05188 152.0 
168.670059 124.0 
169.000397 596.0 
169.039673 697.0 
169.064972 179.0 
171.019379 6348.0 
171.236664 151.0 
172.024277 284.0 
172.99942 849.0 
173.030716 159.0 
173.091034 133.0 
173.131149 750.0 
174.100891 322.0 
174.312851 109.0 
175.069489 249.0 
175.146698 1533.0 
176.08287 165.0 
176.150757 123.0 
176.263321 205.0 
177.162781 546.0 
179.015518 153.0 
179.055481 243.0 
180.875946 239.0 
181.005173 2181.0 
181.036865 286.0 
181.064987 143.0 
181.870422 124.0 
182.005997 372.0 
182.674744 304.0 
182.994751 283.0 
183.088593 293.0 
184.022324 169.0 
184.085526 198.0 
185.028763 417.0 
185.080383 152.0 
185.105637 232.0 
185.998978 148.0 
186.070038 126.0 
186.112289 249.0 
187.01651 727.0 
187.148865 595.0 
188.155746 501.0 
189.010895 114.0 
189.164215 797.0 
189.495407 119.0 
191.180573 914.0 
192.0466 126.0 
192.1754 105.0 
193.148315 200.0 
194.046005 101.0 
194.074005 119.0 
195.012909 151.0 
195.03418 138.0 
195.079788 407.0 
196.017929 124.0 
196.048615 157.0 
196.999451 26854.0 
197.034134 571.0 
197.417236 83.0 
197.638657 103.0 
197.999985 2028.0 
198.042328 354.0 
198.710876 151.0 
198.839722 137.0 
198.939209 559.0 
199.014374 163096.0 
199.500504 71.0 
199.593048 169.0 
199.8638 111.0 
199.952179 191.0 
200.016922 10548.0 
200.054352 158.0 
200.926254 407.0 
201.011566 8449.0 
201.084198 173.0 
201.159454 681.0 
201.231445 175.0 
201.487808 101.0 
201.540039 116.0 
201.642914 126.0 
202.053192 223.0 
202.099426 1213.0 
202.17038 411.0 
202.596024 141.0 
203.044617 217.0 
203.074921 132.0 
203.54747 174.0 
205.075211 93.0 
206.075043 198.0 
207.172043 1709.0 
207.22908 138.0 
208.024384 254.0 
208.481277 93.0 
209.030609 151.0 
209.075684 715.0 
210.097137 92.0 
210.976608 287.0 
211.01297 1476.0 
211.054153 245.0 
211.073486 356.0 
211.111237 205.0 
212.018494 236.0 
212.077179 121.0 
212.963211 268.0 
213.030853 6212.0 
213.495071 120.0 
214.033981 673.0 
214.086258 116.0 
215.009323 1739.0 
216.005753 311.0 
217.016098 290.0 
217.649475 111.0 
219.01236 182.0 
219.052505 156.0 
219.134583 150.0 
219.172699 767.0 
221.044815 132.0 
222.105835 144.0 
223.013092 1235.0 
223.053802 644.0 
224.022568 293.0 
225.029343 1718.0 
227.009552 420.0 
227.04361 2169.0 
228.053192 452.0 
229.020203 113.0 
229.051392 121.0 
229.391052 115.0 
230.097229 343.0 
231.099594 249.0 
232.030243 98.0 
233.039413 262.0 
233.072372 80.0 
235.008331 688.0 
235.051514 497.0 
237.029358 5198.0 
237.065796 540.0 
237.880783 223.0 
238.040146 529.0 
239.005081 194.0 
239.046173 4033.0 
239.779266 188.0 
240.131439 148.0 
241.01152 161.0 
241.060577 999.0 
245.03093 117.0 
247.049545 1078.0 
248.053131 155.0 
249.024124 798.0 
250.081131 106.0 
251.003967 94.0 
251.045166 416.0 
252.040421 182.0 
252.11792 319.0 
253.058807 2767.0 
254.065186 471.0 
255.072845 276.0 
256.411407 161.0 
263.006561 145.0 
263.042389 1084.0 
264.049957 547.0 
265.009064 343.0 
265.062836 16076.0 
266.063965 2045.0 
266.801086 147.0 
267.075043 7067.0 
268.079132 823.0 
269.078827 111.0 
269.187347 103.0 
272.089172 103.0 
275.044922 125.0 
277.058655 1125.0 
278.051147 123.0 
278.248871 111.0 
278.590118 93.0 
279.078339 2083.0 
279.249329 76.0 
280.062653 164.0 
280.094086 113.0 
281.057373 748.0 
281.098572 609.0 
282.060669 187.0 
285.665131 112.0 
289.062866 258.0 
289.104797 75.0 
290.058075 215.0 
291.047394 138.0 
291.076965 781.0 
292.07486 129.0 
292.995361 223.0 
293.085358 353.0 
295.070984 162.0 
297.074097 98.0 
298.722595 138.0 
299.035553 83.0 
300.084656 173.0 
300.178192 207.0 
303.079102 1382.0 
304.094421 96.0 
305.093079 562.0 
307.07135 158.0 
307.106049 370.0 
317.087708 1570.0 
318.095673 112.0 
319.107025 232.0 
321.112396 374.0 
322.127625 130.0 
323.088043 175.0 
331.1026 1365.0 
333.121948 563.0 
334.126251 221.0 
335.133667 353.0 
344.121094 220.0 
345.133423 176.0 
347.143127 231.0 
348.190125 107.0 
350.170471 136.0 
359.178741 413.0 
363.13031 330.0 
363.181091 132.0 
377.194397 552.0 
385.152283 131.0 
386.943573 168.0 
387.168793 6481.0 
388.178253 1361.0 
389.179993 168.0 
405.125092 307.0 
405.183441 4850.0 
405.266266 378.0 
406.185883 1189.0 
406.256531 239.0 
407.270996 187.0 
409.81485 459.0 
433.214966 160.0 
575.278442 89.0 
1452.323364 225.0 
1536.277222 219.0 
1608.534912 212.0 
1692.680786 253.0 
1767.827637 235.0 
1823.060181 263.0 
1833.244873 179.0 
1867.829712 357.0 
1911.186401 98.0 
1916.26123 254.0 
1973.762939 351.0 
END IONS

BEGIN IONS
TITLE=Scan Number: 558
PEPMASS=440.22
CHARGE=1+
MSLEVEL=2
FILENAME=C7_RC7_01_2929.mzXML
INSTRUMENT=ion trap
SCANS=558
SMILES=CC1CCC(=O)C(C)C1(C)CC(O)C(\C)=C\CC2=C(O)C(Cl)=C(C)C(C=O)=C2O
INCHIKEY=XFTFIFNAWKMLKL-WUXMJOGZSA-N
70.128166 100.0 
79.052292 263.0 
79.551598 303.0 
81.071266 157.0 
83.040916 170.0 
86.89196 386.0 
91.052887 247.0 
93.07338 226.0 
94.072365 154.0 
95.050117 211.0 
95.085762 435.0 
97.06424 3546.0 
97.101166 1371.0 
98.070282 213.0 
98.108513 277.0 
105.070885 383.0 
107.086464 539.0 
109.03112 253.0 
109.100464 326.0 
111.118462 936.0 
115.029732 145.0 
119.060181 132.0 
119.084747 367.0 
120.097206 186.0 
121.099396 1455.0 
122.102646 153.0 
123.11541 229.0 
124.076607 192.0 
124.118385 104.0 
128.055389 131.0 
131.046112 199.0 
131.087677 123.0 
133.098892 275.0 
135.115448 352.0 
138.128601 297.0 
139.109726 5519.0 
140.117172 512.0 
143.033493 290.0 
144.030273 187.0 
145.092575 158.0 
150.070847 187.0 
152.117523 185.0 
153.12767 314.0 
155.057861 88.0 
159.01741 124.0 
161.130951 190.0 
163.155472 236.0 
169.0401 325.0 
171.015076 532.0 
175.146362 297.0 
178.170776 108.0 
183.929153 122.0 
184.708664 205.0 
187.014771 374.0 
188.026627 155.0 
189.053268 230.0 
189.257584 132.0 
196.996063 1164.0 
198.00679 185.0 
198.814972 114.0 
198.975769 303.0 
199.014648 22202.0 
199.055222 329.0 
199.717514 129.0 
200.01738 533.0 
201.012115 1902.0 
202.095886 112.0 
207.174133 584.0 
209.028595 157.0 
211.012177 176.0 
211.071228 134.0 
213.026794 374.0 
213.995468 197.0 
219.05542 175.0 
221.056686 244.0 
222.07225 199.0 
222.817581 204.0 
223.015427 1028.0 
223.067703 164.0 
224.076172 172.0 
225.030579 106.0 
229.041153 271.0 
236.044708 88.0 
237.037491 1050.0 
239.038177 651.0 
239.340469 269.0 
240.054733 200.0 
240.089035 221.0 
241.058273 163.0 
244.107956 151.0 
245.076187 178.0 
250.060715 243.0 
252.124756 86.0 
253.028305 261.0 
253.058167 239.0 
254.066208 191.0 
259.661499 124.0 
263.047058 478.0 
265.027496 121.0 
265.062317 1346.0 
266.06662 140.0 
267.078156 1853.0 
269.007568 132.0 
275.070221 116.0 
277.059387 117.0 
279.061249 3122.0 
279.987823 141.0 
280.064667 528.0 
291.071381 246.0 
293.093475 245.0 
295.101868 119.0 
300.100403 362.0 
303.050842 125.0 
305.088593 168.0 
307.066803 161.0 
311.47934 367.0 
312.093567 96.0 
317.096405 315.0 
319.097656 251.0 
320.103729 295.0 
331.09256 180.0 
333.122681 220.0 
345.119049 174.0 
349.147064 116.0 
359.146301 119.0 
377.187988 542.0 
387.1698 2258.0 
388.181671 949.0 
389.176727 96.0 
405.183746 3218.0 
406.181793 543.0 
407.192719 229.0 
439.311768 182.0 
440.214844 431.0 
440.270416 107.0 
441.229736 168.0 
1662.787109 107.0 
1850.843994 338.0 
1852.194092 88.0 
END IONS

BEGIN IONS
TITLE=Scan Number: 559
PEPMASS=563.17603
CHARGE=1+
MSLEVEL=2
FILENAME=C7_RC7_01_2929.mzXML
INSTRUMENT=ion trap
SCANS=559
SMILES=COC1=CC=C(C=C1)C2=COC3=CC(OC4OC(CO)C(O)C(O)C4O[C@H]5OC[C@](O)(CO)[C@H]5O)=CC=C3C2=O
INCHIKEY=TUUBGLDJKKCMRH-NNNVMGKSSA-N
70.334351 211.0 
70.518532 235.0 
71.308197 109.0 
78.88205 174.0 
80.526421 89.0 
82.091042 128.0 
83.872528 270.0 
85.847458 172.0 
85.948669 130.0 
86.221458 237.0 
87.044006 111.0 
88.933327 200.0 
89.168503 182.0 
89.635925 267.0 
92.493523 119.0 
92.860619 224.0 
97.02813 230.0 
99.082321 138.0 
99.136223 109.0 
100.622032 239.0 
102.100487 137.0 
102.723946 165.0 
103.054787 313.0 
105.00042 291.0 
105.069115 254.0 
106.374512 178.0 
107.047531 1798.0 
108.018272 615.0 
110.049873 201.0 
110.781052 161.0 
112.275925 84.0 
112.500305 97.0 
113.859108 101.0 
116.559219 104.0 
118.013817 132.0 
118.040138 4752.0 
118.492249 125.0 
120.69912 142.0 
121.026016 170.0 
121.789169 150.0 
122.660202 97.0 
123.043129 513.0 
124.328125 280.0 
125.972305 252.0 
126.035713 268.0 
127.481987 127.0 
128.089691 396.0 
128.899002 183.0 
129.070435 138.0 
130.786377 225.0 
131.605988 236.0 
133.026978 834.0 
133.063095 1631.0 
134.052643 91.0 
134.06955 252.0 
136.015442 2129.0 
137.021606 4049.0 
138.008194 205.0 
138.023376 309.0 
139.053207 143.0 
140.06134 224.0 
140.158066 272.0 
141.404892 196.0 
143.97998 166.0 
144.893204 159.0 
147.049011 432.0 
147.126724 195.0 
148.043167 188.0 
149.053116 177.0 
149.674286 138.0 
150.582352 193.0 
151.03775 370.0 
152.062988 211.0 
152.359573 82.0 
152.687103 252.0 
152.751328 313.0 
153.069611 94.0 
153.995712 150.0 
154.026184 2446.0 
154.071716 183.0 
155.694412 231.0 
156.055435 370.0 
157.062637 868.0 
158.071991 499.0 
158.270676 204.0 
158.654938 285.0 
160.837143 138.0 
162.957489 207.0 
163.036591 902.0 
163.799408 231.0 
164.039291 213.0 
165.493515 212.0 
165.830292 156.0 
166.496429 265.0 
167.520706 203.0 
169.069717 170.0 
170.074615 614.0 
173.017349 133.0 
173.522324 162.0 
174.991562 314.0 
175.035431 168.0 
175.374222 372.0 
175.486328 329.0 
176.865463 167.0 
178.80748 285.0 
179.752609 245.0 
180.061417 414.0 
181.061584 806.0 
181.13681 152.0 
181.4534 105.0 
182.071152 380.0 
183.099915 198.0 
184.047272 166.0 
185.095612 507.0 
187.764862 249.0 
189.283493 167.0 
190.658829 167.0 
195.079636 557.0 
196.046631 296.0 
196.080307 255.0 
197.057465 1547.0 
197.586166 300.0 
198.068024 3019.0 
199.074982 128.0 
199.499374 394.0 
199.74437 190.0 
200.043488 206.0 
200.066071 543.0 
200.240051 139.0 
201.08902 365.0 
201.307663 207.0 
201.553757 289.0 
208.04361 219.0 
209.067719 433.0 
212.032379 206.0 
212.072937 244.0 
212.161484 134.0 
212.846695 258.0 
213.089432 20425.0 
213.190536 168.0 
213.632278 75.0 
213.694641 150.0 
213.82692 86.0 
213.996033 90.0 
214.092972 1965.0 
214.37471 120.0 
214.454285 99.0 
214.930222 132.0 
216.420898 389.0 
220.071884 169.0 
220.771179 112.0 
221.682343 200.0 
222.148788 214.0 
224.081375 137.0 
224.996872 174.0 
225.053619 2296.0 
226.061325 10611.0 
226.129562 213.0 
226.996719 109.0 
227.036819 265.0 
227.070923 551.0 
227.672363 154.0 
229.045761 140.0 
232.825897 264.0 
233.433685 246.0 
233.766861 426.0 
234.712112 261.0 
235.226974 303.0 
235.966431 244.0 
236.148499 213.0 
236.508362 230.0 
237.007858 409.0 
237.053406 13004.0 
238.059219 1725.0 
238.379379 134.0 
238.688446 230.0 
239.00386 214.0 
239.062256 431.0 
240.074768 119.0 
240.738754 283.0 
241.078644 1368.0 
241.262268 204.0 
241.820404 149.0 
242.093872 165.0 
242.991501 161.0 
243.165649 210.0 
243.314499 414.0 
247.686813 85.0 
249.25853 191.0 
249.349091 386.0 
249.844818 211.0 
250.182571 339.0 
251.011826 99.0 
251.078415 240.0 
251.714844 230.0 
252.605438 193.0 
253.048859 8898.0 
254.055908 28802.0 
255.059662 4932.0 
256.061157 686.0 
257.292358 213.0 
257.934937 152.0 
258.987366 185.0 
259.489166 276.0 
261.92868 170.0 
263.261322 83.0 
263.421906 205.0 
264.637268 111.0 
266.035645 226.0 
266.214783 234.0 
266.562653 168.0 
266.616577 119.0 
266.793427 123.0 
266.893402 123.0 
266.988373 125.0 
267.078156 188.0 
267.582458 270.0 
267.604309 260.0 
267.733154 196.0 
267.868622 158.0 
267.957458 407.0 
267.999908 85.0 
268.042633 109.0 
268.097565 371.0 
268.162842 326.0 
268.209503 375.0 
268.275238 546.0 
268.343475 141.0 
268.370972 308.0 
268.443512 219.0 
268.506439 88.0 
268.648224 514.0 
268.713074 175.0 
268.779083 443.0 
268.828491 634.0 
268.87381 1071.0 
268.920593 531.0 
268.958557 542.0 
269.079681 921893.0 
269.197449 517.0 
269.292358 740.0 
269.357727 270.0 
269.395325 402.0 
269.433319 192.0 
269.468842 678.0 
269.551849 520.0 
269.659393 118.0 
269.685577 276.0 
269.716827 479.0 
269.78006 215.0 
269.807831 295.0 
269.871704 320.0 
269.916138 191.0 
269.954834 283.0 
269.987457 595.0 
270.083405 120542.0 
270.178497 265.0 
270.219299 106.0 
270.291321 268.0 
270.600525 85.0 
270.632294 163.0 
270.656097 148.0 
270.715576 82.0 
271.08429 7203.0 
271.35083 110.0 
271.646851 217.0 
271.679504 157.0 
271.740845 206.0 
271.850922 442.0 
271.900787 187.0 
271.938507 195.0 
272.023438 261.0 
272.052887 592.0 
272.128082 387.0 
272.178162 415.0 
272.236603 216.0 
272.775482 85.0 
272.809723 148.0 
273.117645 96.0 
273.217346 110.0 
274.211853 156.0 
274.250732 76.0 
278.063385 80.0 
280.096802 158.0 
280.375061 150.0 
280.483673 330.0 
280.884277 106.0 
281.104156 73.0 
282.10434 175.0 
282.839661 124.0 
285.569275 118.0 
286.335114 79.0 
287.236115 140.0 
288.490143 98.0 
341.104889 146.0 
374.346741 135.0 
383.1026 114.0 
401.120544 609.0 
431.132202 11621.0 
432.077545 221.0 
432.138885 1425.0 
433.110504 132.0 
530.864441 925.0 
546.605103 105.0 
561.269775 99.0 
563.175842 8035.0 
564.009705 89.0 
564.083435 127.0 
564.12677 164.0 
564.184204 2403.0 
820.66748 163.0 
832.940002 161.0 
840.578064 100.0 
1416.02417 103.0 
1711.967773 103.0 
1756.916748 252.0 
1820.380371 170.0 
1882.157959 111.0 
END IONS

BEGIN IONS
TITLE=Scan Number: 560
PEPMASS=594.21802
CHARGE=1+
MSLEVEL=2
FILENAME=C7_RC7_01_2929.mzXML
INSTRUMENT=ion trap
SCANS=560
SMILES=COC1=CC(=CC(OC)=C1OC)C2C3C(COC3=O)CC4=C(OC5OC(CO)C(O)C(O)C5O)C6=C(OCO6)C=C24
INCHIKEY=PAIASCMUTMHGHU-UHFFFAOYSA-N
77.322144 188.0 
85.029411 284.0 
96.04512 210.0 
98.09346 119.0 
99.044106 91.0 
103.04525 191.0 
104.306984 192.0 
104.701965 161.0 
105.06945 1184.0 
106.073929 291.0 
113.738548 243.0 
117.071342 342.0 
118.071777 120.0 
119.220177 286.0 
128.067047 282.0 
129.066284 774.0 
130.043823 223.0 
131.029526 167.0 
131.049911 1117.0 
131.085205 196.0 
132.091171 195.0 
135.043594 179.0 
137.056808 236.0 
142.634171 239.0 
143.049606 596.0 
145.064667 15691.0 
145.988144 157.0 
146.071487 1242.0 
147.043503 296.0 
147.080414 1612.0 
148.088211 286.0 
151.074524 262.0 
155.058945 264.0 
156.773529 172.0 
157.062729 209.0 
159.041855 1499.0 
159.077759 178.0 
161.060379 1041.0 
165.823257 171.0 
166.062668 603.0 
166.369629 157.0 
167.07164 309.0 
168.085876 205.0 
169.083801 682.0 
169.754745 188.0 
171.054688 306.0 
172.046799 120.0 
173.027023 697.0 
173.05925 19659.0 
173.096375 231.0 
174.062454 1924.0 
175.038239 2128.0 
175.076385 489.0 
175.369202 132.0 
176.046341 308.0 
179.074066 174.0 
181.083939 1889.0 
181.993271 113.0 
182.092514 343.0 
182.147949 101.0 
183.077805 140.0 
185.059799 1641.0 
186.043427 238.0 
186.398758 97.0 
187.560104 116.0 
188.047745 805.0 
189.05423 23396.0 
190.055374 2283.0 
190.093704 87.0 
191.069092 2010.0 
191.441315 194.0 
195.062164 129.0 
199.037933 767.0 
200.039551 108.0 
200.993088 171.0 
201.055893 2232.0 
202.049393 414.0 
203.069595 19953.0 
203.60347 107.0 
204.036896 193.0 
204.069885 2167.0 
205.069611 572.0 
212.360504 291.0 
213.053955 173.0 
215.071442 180.0 
217.055496 307.0 
219.033081 187.0 
219.06459 657.0 
229.050766 3544.0 
230.057724 193.0 
230.116669 122.0 
231.054993 154.0 
231.078964 371.0 
231.107758 257.0 
233.02327 185.0 
239.070023 1997.0 
239.105118 149.0 
240.075958 347.0 
244.034958 207.0 
247.059479 66900.0 
247.204773 201.0 
247.490067 125.0 
247.645096 116.0 
247.72905 101.0 
248.064163 5605.0 
249.064087 644.0 
249.851364 102.0 
249.922836 94.0 
249.995712 96.0 
251.10144 136.0 
252.06459 167.0 
253.047485 210.0 
253.085999 686.0 
255.062515 329.0 
255.100098 140.0 
256.067566 143.0 
259.076202 116.0 
260.276947 74.0 
262.091492 203.0 
263.056976 556.0 
263.102936 252.0 
265.062744 158.0 
265.859253 111.0 
267.066193 2912.0 
267.416809 104.0 
268.039948 295.0 
268.066345 875.0 
269.177368 83.0 
273.809021 233.0 
274.054352 116.0 
275.085388 329.0 
276.061127 297.0 
280.078644 189.0 
280.540497 109.0 
281.966797 92.0 
282.027191 199.0 
282.087128 19365.0 
283.054413 884.0 
283.094482 2216.0 
283.250641 397.0 
284.090576 348.0 
285.057465 224.0 
285.104828 160.0 
286.522247 101.0 
289.033661 167.0 
290.08963 164.0 
291.061279 433.0 
291.105743 120.0 
292.096222 567.0 
293.04129 189.0 
293.117218 187.0 
294.078094 215.0 
294.132233 129.0 
295.132996 256.0 
298.081299 2423.0 
299.085419 564.0 
300.087189 143.0 
303.106628 117.0 
305.077789 462.0 
306.088379 85.0 
307.115417 234.0 
308.058807 334.0 
308.096039 374.0 
309.111237 135.0 
311.698944 118.0 
312.048218 173.0 
312.128052 119.0 
312.43158 201.0 
313.033997 115.0 
313.10733 22718.0 
314.108917 1722.0 
314.612946 134.0 
315.421539 190.0 
316.150116 91.0 
317.025757 227.0 
320.043304 130.0 
321.949188 150.0 
322.119537 1551.0 
323.086548 1109.0 
323.223785 210.0 
324.074341 118.0 
333.352844 209.0 
336.10495 252.0 
337.124664 254.0 
338.119995 722.0 
338.971771 238.0 
339.124725 524.0 
340.096344 247.0 
345.088318 94.0 
348.071838 138.0 
349.106812 288.0 
351.128357 129.0 
352.12738 86.0 
353.128113 401.0 
354.149261 310.0 
364.088287 175.0 
366.117706 87.0 
369.092346 212.0 
379.114655 962.0 
397.127899 17218.0 
397.232727 245.0 
397.49411 97.0 
398.129608 3084.0 
399.137238 324.0 
401.781769 131.0 
408.926331 195.0 
409.112457 19022.0 
409.192719 131.0 
410.117554 2747.0 
411.136108 333.0 
415.134552 1636.0 
425.113007 215.0 
473.641663 235.0 
576.336792 104.0 
577.202332 429.0 
578.151245 276.0 
578.208191 262.0 
585.719299 122.0 
594.092834 130.0 
594.220886 93.0 
594.314331 143.0 
1913.758179 251.0 
1930.865967 222.0 
1966.956299 288.0 
END IONS

BEGIN IONS
TITLE=Scan Number: 561
PEPMASS=249.112
CHARGE=1+
MSLEVEL=2
FILENAME=G9_GG9_01_2726.mzXML
INSTRUMENT=ion trap
SCANS=561
SMILES=COC1=CC(=O)O[C@@H](CCC2=CC=CC=C2)[C@H]1O
INCHIKEY=VJCNEDVMYQCMBK-SMDDNHRTSA-N
79.054153 449.0 
82.042015 503.0 
85.020256 248.0 
91.053909 2362.0 
92.028473 138.0 
92.061127 78.0 
95.04776 447.0 
103.055473 637.0 
104.391739 230.0 
105.032707 136.0 
105.046738 343.0 
105.070084 2836.0 
105.106804 155.0 
106.076355 149.0 
113.023781 143.0 
115.034912 166.0 
115.055473 1534.0 
117.07209 457.0 
118.080666 244.0 
120.156921 43.0 
125.060928 113.0 
127.042046 200.0 
128.061737 1743.0 
129.069794 866.0 
130.075867 110.0 
130.134995 140.0 
140.047058 597.0 
141.067169 514.0 
143.083923 440.0 
145.063965 295.0 
145.277206 53.0 
145.723038 64.0 
150.687271 68.0 
151.046997 279.0 
152.061935 3356.0 
152.102585 66.0 
153.069061 2662.0 
154.072845 289.0 
154.415848 88.0 
155.060257 374.0 
155.084946 449.0 
155.130051 80.0 
156.08783 142.0 
168.055817 102.0 
169.064804 595.0 
170.075867 715.0 
171.071121 133.0 
171.089111 156.0 
171.473053 79.0 
172.082794 310.0 
179.067139 366.0 
180.058502 196.0 
181.066971 1213.0 
182.061447 197.0 
185.093735 1261.0 
195.078979 146.0 
198.071442 108.0 
199.079132 230.0 
213.091721 589.0 
231.09964 121.0 
249.108322 154.0 
1718.884399 297.0 
1863.548828 175.0 
END IONS

BEGIN IONS
TITLE=Scan Number: 562
PEPMASS=266.13901
CHARGE=1+
MSLEVEL=2
FILENAME=G9_GG9_01_2726.mzXML
INSTRUMENT=ion trap
SCANS=562
SMILES=COC1=CC(=O)O[C@@H](CCC2=CC=CC=C2)[C@H]1O
INCHIKEY=VJCNEDVMYQCMBK-SMDDNHRTSA-N
70.98024 299.0 
71.011444 174.0 
71.571381 266.0 
71.916344 385.0 
75.655655 251.0 
77.014908 190.0 
77.037827 698.0 
79.05442 3861.0 
80.059067 283.0 
81.031982 338.0 
81.069382 150.0 
81.946724 81.0 
82.040581 559.0 
83.012878 983.0 
83.050903 345.0 
83.91201 277.0 
85.028099 1376.0 
90.799858 323.0 
90.943573 173.0 
91.054214 24522.0 
91.124924 149.0 
92.0261 646.0 
92.057259 1880.0 
92.117989 73.0 
92.511635 95.0 
92.527885 104.0 
93.033699 1194.0 
93.070824 153.0 
94.043663 374.0 
94.706459 79.0 
95.04895 653.0 
95.640938 248.0 
95.782532 103.0 
96.258636 219.0 
97.065727 994.0 
97.102364 333.0 
98.07074 197.0 
99.044067 786.0 
99.791817 165.0 
100.015305 88.0 
102.855721 187.0 
103.054993 3337.0 
104.057365 332.0 
104.941414 167.0 
105.04464 4402.0 
105.070221 29599.0 
105.234886 87.0 
106.04982 385.0 
106.073898 2011.0 
107.010788 172.0 
107.080864 138.0 
109.033203 363.0 
109.06517 671.0 
110.037704 507.0 
111.000023 231.0 
111.023628 273.0 
111.043655 704.0 
112.049072 870.0 
112.772171 260.0 
113.02356 3398.0 
115.054359 18081.0 
116.056313 1026.0 
116.844238 298.0 
117.070724 13764.0 
118.074005 285.0 
119.087868 126.0 
121.031387 1602.0 
121.067863 648.0 
122.03389 780.0 
124.530518 163.0 
125.023712 1327.0 
125.060059 963.0 
126.035637 300.0 
127.040024 2729.0 
128.036484 763.0 
128.062347 8959.0 
128.754913 144.0 
129.069977 12573.0 
129.112839 148.0 
129.545288 133.0 
130.071777 847.0 
130.098633 96.0 
131.020615 233.0 
131.04805 1056.0 
131.085785 725.0 
132.053787 112.0 
132.47258 174.0 
133.066956 1610.0 
133.183899 310.0 
134.074356 189.0 
135.054337 166.0 
135.084183 268.0 
136.337784 237.0 
137.054062 358.0 
139.039307 1500.0 
140.047348 3402.0 
140.524277 325.0 
141.071579 2225.0 
142.077927 1269.0 
143.086121 5332.0 
144.057663 891.0 
144.092224 818.0 
145.069138 1255.0 
145.095688 202.0 
146.827209 243.0 
147.006088 130.0 
147.082169 515.0 
147.179886 99.0 
147.534088 98.0 
151.035797 131.0 
152.063187 22109.0 
152.7379 203.0 
152.800385 241.0 
152.914627 275.0 
153.070541 50984.0 
153.132858 91.0 
153.592789 184.0 
154.07724 8416.0 
154.968506 179.0 
154.990997 269.0 
155.028778 174.0 
155.060471 4844.0 
155.086945 11364.0 
155.344879 81.0 
156.064178 854.0 
156.090347 803.0 
156.966522 225.0 
157.065903 2815.0 
157.103134 282.0 
158.072601 401.0 
159.078903 405.0 
161.095795 117.0 
164.730194 63.0 
165.071503 731.0 
166.076523 246.0 
168.055984 323.0 
169.066422 3608.0 
169.864136 92.0 
170.07402 7188.0 
170.320038 69.0 
171.079926 5708.0 
172.084869 620.0 
173.446518 186.0 
175.072815 215.0 
178.86203 163.0 
179.059814 931.0 
180.058273 482.0 
180.699936 118.0 
181.012299 179.0 
181.066635 24229.0 
181.288239 121.0 
182.072327 2620.0 
183.057587 314.0 
183.430954 185.0 
183.590347 181.0 
184.051468 294.0 
184.981537 91.0 
185.034943 146.0 
185.097733 26964.0 
185.286804 99.0 
185.380707 84.0 
186.100647 1333.0 
187.076233 299.0 
187.112854 2031.0 
187.473221 89.0 
187.549438 72.0 
187.609879 173.0 
189.090622 208.0 
195.08017 3414.0 
195.28067 381.0 
196.087143 111.0 
196.621292 69.0 
197.061707 601.0 
197.685104 85.0 
198.070251 842.0 
199.075974 6445.0 
200.079254 809.0 
203.071289 200.0 
203.108948 255.0 
207.73291 137.0 
208.971649 91.0 
211.079636 416.0 
212.664795 239.0 
213.092621 22077.0 
214.070953 253.0 
214.09613 814.0 
217.087906 189.0 
223.085724 157.0 
224.618988 77.0 
229.39888 68.0 
230.693008 133.0 
230.714981 180.0 
231.103638 22293.0 
231.2043 99.0 
231.404221 191.0 
232.107315 1202.0 
233.846252 151.0 
233.954285 104.0 
249.114761 22492.0 
249.351257 87.0 
250.118759 1026.0 
647.378296 99.0 
750.775024 96.0 
1214.966309 281.0 
1308.178589 258.0 
1515.305908 248.0 
1574.379761 166.0 
1641.512451 159.0 
1750.428833 351.0 
1827.527466 279.0 
1832.289429 230.0 
1842.500244 207.0 
1847.674683 245.0 
1889.086182 264.0 
1903.168579 223.0 
1961.958374 321.0 
1989.186401 236.0 
END IONS

BEGIN IONS
TITLE=Scan Number: 563
PEPMASS=287.091
CHARGE=1+
MSLEVEL=2
FILENAME=G9_GG9_01_2726.mzXML
INSTRUMENT=ion trap
SCANS=563
SMILES=COC1=CC2=C(C(=O)CC(O2)C3=CC=C(O)C=C3)C(O)=C1
INCHIKEY=DJOJDHGQRNZXQQ-UHFFFAOYSA-N
71.435318 211.0 
83.015091 184.0 
83.04882 205.0 
84.957214 207.0 
91.053299 1732.0 
92.057198 95.0 
94.180428 281.0 
95.031403 285.0 
95.049583 291.0 
96.018211 151.0 
99.012131 260.0 
99.043312 189.0 
101.058334 146.0 
103.054924 135.0 
105.044891 186.0 
107.049477 648.0 
109.028496 164.0 
111.042725 2354.0 
112.047508 215.0 
119.048225 6269.0 
119.162804 167.0 
120.054291 1048.0 
121.025002 130.0 
121.059868 262.0 
122.596184 206.0 
123.043686 309.0 
124.01368 615.0 
129.043671 199.0 
136.015305 162.0 
137.054535 130.0 
139.03656 224.0 
141.051758 182.0 
147.015549 241.0 
147.042999 7267.0 
148.043289 188.0 
148.098206 189.0 
151.048294 253.0 
152.007843 365.0 
153.070786 137.0 
154.094467 149.0 
155.022995 228.0 
161.025681 116.0 
165.016357 159.0 
167.032761 27344.0 
167.595871 113.0 
168.035675 1970.0 
169.261505 149.0 
170.913147 90.0 
171.051117 655.0 
177.010208 198.0 
181.064407 446.0 
182.065842 169.0 
185.045349 836.0 
186.055267 148.0 
193.048462 150.0 
194.07077 118.0 
197.059769 165.0 
201.953369 104.0 
209.049927 147.0 
227.050507 179.0 
246.089478 236.0 
253.049637 168.0 
286.706543 163.0 
287.053986 367.0 
287.089691 13424.0 
287.291382 177.0 
288.095001 893.0 
437.036102 101.0 
1881.183228 157.0 
END IONS

BEGIN IONS
TITLE=Scan Number: 566
PEPMASS=379.117
CHARGE=1+
MSLEVEL=2
FILENAME=G9_GG9_01_2726.mzXML
INSTRUMENT=ion trap
SCANS=566
SMILES=COC1=C(C=C2OCOC2=C1)C3=COC4=C(C=CC5=C4C=CC(C)(C)O5)C3=O
INCHIKEY=WITLAWYGGVAFLU-UHFFFAOYSA-N
70.574005 178.0 
72.958435 94.0 
74.028801 286.0 
75.232475 322.0 
76.026947 184.0 
79.052467 494.0 
81.068687 109.0 
82.187408 129.0 
82.208054 222.0 
83.719467 248.0 
84.45665 193.0 
85.027763 167.0 
88.514854 302.0 
91.05143 162.0 
92.049599 33.0 
92.582001 217.0 
95.015472 226.0 
95.050369 130.0 
95.108864 255.0 
99.593369 160.0 
103.054794 626.0 
104.057602 246.0 
105.038757 998.0 
105.071198 189.0 
105.226311 221.0 
105.622765 217.0 
107.014694 117.0 
107.050606 715.0 
108.055573 247.0 
109.058334 34.0 
110.594788 188.0 
115.053764 971.0 
116.055389 102.0 
116.767738 368.0 
117.070747 967.0 
119.048523 340.0 
120.063034 262.0 
121.030769 394.0 
121.064392 133.0 
121.520691 172.0 
122.073624 199.0 
123.025101 253.0 
123.040955 147.0 
124.047607 185.0 
124.987251 73.0 
125.029564 265.0 
128.03772 241.0 
128.064041 576.0 
128.929825 266.0 
129.069763 1771.0 
129.103271 205.0 
130.657303 208.0 
130.810791 47.0 
131.049347 3588.0 
131.279465 53.0 
132.051575 910.0 
132.365082 50.0 
132.406006 207.0 
133.028458 2077.0 
134.039474 572.0 
135.043793 1031.0 
135.685669 226.0 
137.028168 308.0 
138.02002 49.0 
139.162338 350.0 
139.217072 149.0 
139.702255 222.0 
140.045593 130.0 
140.586197 103.0 
141.009109 372.0 
141.599731 80.0 
143.047531 321.0 
143.078476 292.0 
143.092392 317.0 
143.356277 241.0 
144.054916 303.0 
145.030243 172.0 
145.063034 119.0 
146.074173 2767.0 
147.044128 874.0 
147.075516 939.0 
147.795822 268.0 
148.052017 809.0 
148.632507 114.0 
148.989395 151.0 
149.025848 456.0 
150.099716 213.0 
151.040787 1292.0 
153.068024 76.0 
153.897003 222.0 
154.673096 149.0 
155.085464 1939.0 
156.069748 372.0 
156.091202 330.0 
157.061768 599.0 
157.255035 27.0 
158.038666 177.0 
158.073883 849.0 
158.306351 188.0 
159.043991 10929.0 
159.078537 241.0 
160.047165 1789.0 
161.022354 7786.0 
161.061523 570.0 
161.40303 131.0 
162.031265 24649.0 
162.252487 212.0 
162.526367 18.0 
162.910797 245.0 
163.036346 3570.0 
163.124176 66.0 
164.047516 313.0 
164.088852 40.0 
164.219482 76.0 
164.629517 260.0 
164.959259 124.0 
165.055862 415.0 
167.032959 109.0 
167.63298 229.0 
168.476089 224.0 
169.066422 181.0 
170.028763 155.0 
171.00325 92.0 
171.052734 967.0 
171.078705 901.0 
172.049988 441.0 
173.025833 297.0 
173.060043 1833.0 
173.097565 909.0 
173.357117 141.0 
174.069489 2733.0 
174.290527 215.0 
174.946808 212.0 
175.036255 762.0 
175.075745 2603.0 
175.228561 202.0 
175.443756 62.0 
176.021194 251.0 
176.048355 407.0 
176.081116 419.0 
176.19342 265.0 
177.02327 322.0 
177.04245 221.0 
178.058914 173.0 
178.331009 210.0 
179.046356 322.0 
179.088882 598.0 
179.882477 187.0 
181.062714 320.0 
181.345673 77.0 
182.079117 211.0 
183.04039 292.0 
184.054321 877.0 
185.06012 3623.0 
185.097031 140.0 
186.07338 237.0 
186.458832 113.0 
186.550705 140.0 
186.604584 72.0 
186.635925 86.0 
186.844238 174.0 
186.939301 187.0 
187.039154 246876.0 
187.07991 414.0 
187.236877 57.0 
187.442337 58.0 
187.534882 118.0 
187.763382 329.0 
187.825394 45.0 
187.864075 131.0 
187.889206 77.0 
187.951096 230.0 
187.986832 81.0 
188.042755 22003.0 
188.287231 184.0 
188.348724 122.0 
188.493759 62.0 
188.611359 40.0 
188.705826 75.0 
188.768768 29.0 
188.790955 92.0 
188.950577 206.0 
189.018066 5175.0 
189.049301 1193.0 
189.114563 159.0 
189.236145 99.0 
189.287384 96.0 
189.309265 53.0 
189.345551 167.0 
189.390472 256.0 
189.440506 121.0 
189.476944 75.0 
189.560913 255.0 
189.600708 90.0 
189.725739 20.0 
189.87854 108.0 
190.02742 886.0 
190.084167 138.0 
190.25499 128.0 
190.497391 256.0 
191.023132 168.0 
191.070328 129.0 
192.04187 205.0 
192.087082 181.0 
193.062515 47.0 
193.182556 190.0 
194.082367 224.0 
194.108047 231.0 
196.922348 72.0 
196.986008 79.0 
197.057343 496.0 
197.098389 34.0 
198.069412 66.0 
198.092911 247.0 
199.042969 213.0 
199.075195 345.0 
200.049896 727.0 
200.419983 36.0 
201.055176 2652.0 
201.762573 77.0 
202.06398 4488.0 
203.068909 1546.0 
204.088272 166.0 
204.380615 110.0 
204.766586 153.0 
204.939514 93.0 
204.979706 101.0 
205.049713 29620.0 
205.103134 313.0 
205.140427 66.0 
205.261169 118.0 
205.368195 61.0 
205.82283 103.0 
206.05275 4194.0 
207.04985 272.0 
207.080185 156.0 
207.601852 123.0 
208.045441 163.0 
208.094009 157.0 
208.161362 200.0 
209.059418 308.0 
209.0923 366.0 
210.574844 237.0 
211.033203 345.0 
211.074265 297.0 
212.046967 268.0 
212.281815 32.0 
213.057678 989.0 
214.057175 479.0 
214.81073 107.0 
214.873825 146.0 
215.08316 328.0 
215.146042 130.0 
215.211044 223.0 
217.060074 104.0 
217.103485 186.0 
217.892166 138.0 
218.07373 755.0 
218.477341 274.0 
219.073364 343.0 
220.046432 132.0 
220.074341 543.0 
220.11792 130.0 
220.741257 127.0 
221.021423 115.0 
221.059204 585.0 
221.101669 538.0 
222.103821 548.0 
222.732376 39.0 
224.046753 89.0 
224.083054 349.0 
224.99205 275.0 
225.048904 258.0 
225.112595 220.0 
226.062714 93.0 
226.10054 140.0 
227.036743 260.0 
227.076584 328.0 
227.783218 212.0 
228.036026 193.0 
229.048752 210.0 
229.086517 796.0 
229.742432 290.0 
230.060913 285.0 
231.025253 27.0 
231.092133 106.0 
231.463684 19.0 
231.516617 18.0 
232.041275 149.0 
232.089279 866.0 
233.098938 628.0 
234.099442 182.0 
234.775131 145.0 
235.037582 188.0 
235.073273 2461.0 
236.077255 27.0 
237.05191 192.0 
237.089081 225.0 
238.058167 267.0 
238.08606 183.0 
238.572922 178.0 
240.056061 112.0 
241.056854 211.0 
242.056747 270.0 
243.081818 697.0 
244.089203 443.0 
245.058823 272.0 
245.093506 423.0 
246.069229 316.0 
246.220108 82.0 
246.625519 106.0 
247.038544 104.0 
247.077637 1242.0 
248.055725 94.0 
248.083542 463.0 
249.055573 279.0 
249.090286 588.0 
250.064789 492.0 
250.095627 946.0 
251.069016 211.0 
252.085739 212.0 
252.110565 153.0 
253.088135 470.0 
254.075653 103.0 
255.098923 285.0 
256.08783 289.0 
257.043976 347.0 
258.072876 82.0 
259.076355 697.0 
260.082306 1304.0 
260.467468 250.0 
261.093018 2087.0 
261.881775 99.0 
262.0737 547.0 
262.10025 2203.0 
262.16626 31.0 
263.038422 1133.0 
263.070679 19093.0 
263.143555 20.0 
263.257507 76.0 
263.897369 46.0 
263.99472 161.0 
264.07431 1851.0 
264.503632 77.0 
264.608856 28.0 
264.937836 248.0 
265.082367 547.0 
265.274231 49.0 
266.054108 201.0 
266.091949 384.0 
266.809143 159.0 
267.063202 154.0 
268.023926 165.0 
268.287659 47.0 
269.89093 340.0 
270.049225 203.0 
272.084137 553.0 
273.092377 526.0 
274.062073 549.0 
274.098572 337.0 
274.3591 100.0 
275.026337 139.0 
275.070404 2657.0 
275.102661 440.0 
276.011505 85.0 
276.042175 452.0 
276.074982 680.0 
276.116425 205.0 
277.05542 334.0 
277.088318 2309.0 
277.144135 342.0 
278.094147 3646.0 
278.196442 87.0 
279.095947 1286.0 
280.065582 165.0 
281.049561 243.0 
281.082977 277.0 
281.651062 135.0 
281.743469 54.0 
282.06192 128.0 
282.157471 370.0 
283.028259 307.0 
284.070435 264.0 
285.037689 220.0 
285.773071 251.0 
286.059418 120.0 
287.040741 97.0 
287.069977 221.0 
288.075165 795.0 
289.087219 2173.0 
289.220734 277.0 
290.101318 1983.0 
290.147949 119.0 
290.858612 420.0 
290.997833 195.0 
291.02594 730.0 
291.066528 9568.0 
291.338104 18.0 
291.74704 72.0 
291.985291 198.0 
292.067932 2119.0 
292.218475 208.0 
293.044434 987.0 
293.077972 1788.0 
293.112488 753.0 
294.055847 615.0 
294.11972 192.0 
295.046265 229.0 
296.476501 275.0 
298.044891 192.0 
299.409424 204.0 
300.09552 200.0 
301.090851 1259.0 
301.857727 18.0 
302.051758 371.0 
303.061951 1020.0 
303.103271 491.0 
304.081299 552.0 
305.043488 120.0 
305.081909 1635.0 
305.634888 179.0 
306.054016 366.0 
306.091248 7353.0 
306.962677 149.0 
307.062897 771.0 
307.097748 1352.0 
308.034027 188.0 
308.065216 132.0 
308.098999 104.0 
309.042297 205.0 
309.070679 147.0 
311.100525 381.0 
313.818146 19.0 
315.072327 123.0 
315.388062 72.0 
316.076294 644.0 
317.081177 1396.0 
318.046234 336.0 
318.089142 1479.0 
318.515137 114.0 
319.016235 337.0 
319.05658 3442.0 
319.094727 1502.0 
319.439484 195.0 
319.98111 135.0 
320.049683 403.0 
320.096344 328.0 
321.072479 1940.0 
321.112549 5701.0 
321.252594 29.0 
322.036469 142.0 
322.081848 481.0 
322.110687 253.0 
322.338745 49.0 
323.077515 154.0 
323.125641 1700.0 
323.645996 56.0 
323.950928 235.0 
324.12326 110.0 
325.070587 88.0 
326.078247 162.0 
328.069153 149.0 
329.085449 2573.0 
330.089691 353.0 
330.985382 174.0 
331.057892 1775.0 
331.101349 748.0 
332.076172 689.0 
332.10495 212.0 
332.573181 90.0 
332.956482 150.0 
333.077637 9792.0 
333.226776 35.0 
333.470306 75.0 
334.003021 255.0 
334.079712 6442.0 
335.078796 1733.0 
336.068726 229.0 
336.102295 243.0 
337.022522 210.0 
337.070251 228.0 
337.108459 229.0 
343.10495 108.0 
343.66864 101.0 
345.080933 268.0 
346.083313 2307.0 
346.397949 210.0 
347.091705 4136.0 
347.271332 23.0 
347.475891 30.0 
348.0914 789.0 
348.458282 317.0 
348.539612 146.0 
348.58728 192.0 
348.974457 287.0 
349.071899 61974.0 
349.283661 152.0 
349.899872 54.0 
349.964966 158.0 
350.077454 11253.0 
350.276581 39.0 
350.40564 86.0 
350.864258 24.0 
351.075226 837.0 
351.126587 1314.0 
351.414032 158.0 
351.833496 172.0 
351.936981 55.0 
352.137238 113.0 
352.615936 42.0 
353.422272 30.0 
353.75116 64.0 
353.881348 203.0 
359.580811 204.0 
360.983948 184.0 
361.107208 4361.0 
362.103119 666.0 
362.910583 296.0 
362.975037 38.0 
363.086273 2093.0 
363.290131 77.0 
363.617554 132.0 
363.65683 150.0 
363.706665 255.0 
364.031769 572.0 
364.094971 18361.0 
364.243225 182.0 
364.311707 198.0 
364.384064 38.0 
365.056824 136.0 
365.100616 3434.0 
365.423981 143.0 
366.363953 76.0 
366.4086 61.0 
367.449432 56.0 
368.102081 302.0 
375.948883 28.0 
377.095581 85.0 
377.15683 28.0 
377.333252 166.0 
377.468414 87.0 
377.521606 35.0 
377.611847 91.0 
378.145966 76.0 
378.46637 112.0 
378.51239 341.0 
378.5737 37.0 
378.685547 57.0 
378.798615 91.0 
378.857147 140.0 
378.915466 56.0 
378.96405 233.0 
378.998077 1134.0 
379.043427 1964.0 
379.119446 236276.0 
379.253448 153.0 
379.294525 79.0 
379.373535 261.0 
379.42749 28.0 
379.485626 133.0 
379.52536 48.0 
379.589142 366.0 
379.692749 310.0 
379.793396 132.0 
379.815704 127.0 
380.019623 50.0 
380.122467 39104.0 
380.208405 191.0 
380.267517 182.0 
380.332275 34.0 
380.460388 19.0 
380.64447 56.0 
380.686768 29.0 
381.124023 665.0 
381.253052 64.0 
381.325897 76.0 
381.359314 43.0 
381.970947 75.0 
382.275604 29.0 
382.323242 376.0 
382.406036 79.0 
382.439484 72.0 
382.485077 33.0 
382.567444 152.0 
382.604492 145.0 
382.653137 96.0 
382.684845 257.0 
382.732635 95.0 
382.763733 87.0 
382.844879 115.0 
383.466553 123.0 
383.62796 96.0 
383.661163 92.0 
383.724182 80.0 
383.824585 58.0 
384.222198 107.0 
384.506226 43.0 
387.843628 19.0 
389.821442 21.0 
391.246307 26.0 
393.090179 40.0 
399.869171 131.0 
400.955505 18.0 
404.080872 90.0 
410.772583 109.0 
505.988983 133.0 
571.426392 56.0 
891.629028 100.0 
923.305542 102.0 
1158.639893 41.0 
1170.41626 38.0 
1429.815063 108.0 
1513.738403 109.0 
1588.564087 242.0 
1696.850708 83.0 
END IONS

BEGIN IONS
TITLE=Scan Number: 567
PEPMASS=393.133
CHARGE=1+
MSLEVEL=2
FILENAME=G9_GG9_01_2726.mzXML
INSTRUMENT=ion trap
SCANS=567
SMILES=COC1=C(C(=O)\C=C\C2=CC=CC=C2)C(O)=C(CC3=CC=CC(O)=C3O)C(O)=C1
INCHIKEY=WEHFIEZHFRETHH-ZHACJKMWSA-N
71.298515 161.0 
73.026924 207.0 
73.066322 235.0 
73.553452 157.0 
74.285362 150.0 
74.659431 183.0 
74.843727 258.0 
75.415001 102.0 
77.039108 816.0 
77.75415 361.0 
77.935333 226.0 
79.016754 1042.0 
79.053192 131.0 
79.232239 129.0 
79.718689 214.0 
80.014153 176.0 
80.586571 133.0 
81.031311 772.0 
81.973183 114.0 
82.145126 238.0 
83.009956 569.0 
83.046585 1133.0 
83.852554 213.0 
84.202126 299.0 
86.861084 164.0 
87.044266 128.0 
90.252739 106.0 
90.351028 356.0 
90.989166 74.0 
91.054123 22046.0 
91.076866 148.0 
92.057053 1439.0 
92.586266 211.0 
92.781525 85.0 
92.995361 1666.0 
93.030861 1030.0 
93.264091 68.0 
94.743614 152.0 
94.855759 125.0 
94.98452 163.0 
95.012741 187.0 
95.048752 8294.0 
95.147202 247.0 
96.052666 489.0 
96.83223 178.0 
96.994987 157.0 
97.027191 150.0 
97.576202 128.0 
98.770424 302.0 
99.621101 268.0 
99.933624 351.0 
100.359482 148.0 
100.640747 216.0 
101.058289 465.0 
101.495232 135.0 
101.770836 209.0 
102.510513 190.0 
103.053749 8702.0 
103.469437 120.0 
103.879524 289.0 
104.057816 593.0 
105.041306 3045.0 
105.069939 944.0 
105.199104 141.0 
105.221031 233.0 
106.041267 454.0 
106.358482 221.0 
107.010597 191.0 
107.044853 292.0 
107.391136 278.0 
107.981979 283.0 
108.019936 2754.0 
108.490738 296.0 
108.946945 167.0 
109.028755 1369.0 
109.062187 160.0 
109.139687 261.0 
111.0084 248.0 
111.042084 3026.0 
111.806534 302.0 
112.045326 172.0 
113.023438 5194.0 
113.059227 351.0 
113.208031 249.0 
113.934914 254.0 
114.024734 304.0 
114.655563 244.0 
114.713203 80.0 
115.054817 805.0 
117.028099 141.0 
117.415314 199.0 
117.900017 201.0 
119.326447 229.0 
120.057373 276.0 
120.581505 223.0 
120.970184 322.0 
121.02877 3267.0 
121.063896 221.0 
121.842964 175.0 
122.029518 626.0 
122.709923 314.0 
123.007851 267.0 
123.043762 49270.0 
123.126511 116.0 
123.151962 70.0 
124.015015 815.0 
124.047035 2343.0 
124.130264 141.0 
124.76165 92.0 
124.815422 183.0 
124.923256 113.0 
125.022751 4086.0 
125.050354 276.0 
125.51638 97.0 
126.759155 80.0 
127.038826 372.0 
127.717918 124.0 
129.047882 157.0 
129.069214 331.0 
131.048569 14077.0 
131.855881 242.0 
132.051651 1678.0 
133.027222 360.0 
134.350723 140.0 
134.921829 90.0 
135.042099 226.0 
136.015198 2173.0 
136.092041 312.0 
136.115005 189.0 
137.020782 333.0 
137.059341 198.0 
137.580048 77.0 
138.025375 108.0 
139.038239 923.0 
139.369354 71.0 
141.017807 181.0 
141.057419 664.0 
141.113113 73.0 
142.077515 95.0 
142.755936 313.0 
143.030777 620.0 
143.082916 181.0 
143.283112 227.0 
144.052048 103.0 
145.412979 342.0 
146.073792 163.0 
146.840576 175.0 
146.910431 181.0 
146.974762 179.0 
147.007095 1141.0 
147.043198 205.0 
149.023712 4646.0 
149.051773 594.0 
149.50882 361.0 
150.030151 670.0 
150.378769 179.0 
150.887726 221.0 
151.038925 16928.0 
151.151184 131.0 
151.19014 141.0 
151.342529 125.0 
151.956375 168.0 
152.011124 2314.0 
152.043091 1515.0 
153.014984 583.0 
153.065689 932.0 
153.716492 282.0 
153.794312 380.0 
154.03067 644.0 
154.075394 491.0 
155.048553 906.0 
155.087341 308.0 
155.823334 188.0 
157.067322 234.0 
157.200012 183.0 
158.049911 128.0 
158.083191 285.0 
158.790558 206.0 
161.022461 2678.0 
161.084274 107.0 
161.204178 118.0 
162.026535 552.0 
163.044891 489.0 
164.006577 257.0 
164.895782 206.0 
165.019913 1128.0 
165.057465 1612.0 
165.096085 364.0 
165.831818 177.0 
166.076782 690.0 
166.280212 192.0 
166.324341 118.0 
166.359833 137.0 
166.436539 151.0 
166.860931 156.0 
166.965271 513.0 
167.033936 103643.0 
167.086533 298.0 
167.278259 82.0 
167.609238 97.0 
168.037476 7155.0 
168.141052 79.0 
168.21402 108.0 
168.428482 251.0 
169.047333 864.0 
169.191345 132.0 
169.295898 67.0 
169.3535 116.0 
170.018387 1554.0 
170.06926 122.0 
171.039505 365.0 
171.076263 139.0 
171.807877 112.0 
171.940155 73.0 
174.692322 220.0 
176.02475 119.0 
176.066391 139.0 
176.414459 75.0 
177.070221 1365.0 
177.955536 122.0 
177.98587 99.0 
178.028488 405.0 
178.073044 539.0 
178.105591 127.0 
178.137421 130.0 
178.18631 261.0 
178.389343 188.0 
178.446579 534.0 
178.487411 166.0 
178.538681 250.0 
178.624161 282.0 
178.670258 145.0 
178.698608 109.0 
178.746063 170.0 
178.798599 171.0 
178.882706 423.0 
178.938034 487.0 
178.96727 622.0 
179.033997 543354.0 
179.137497 138.0 
179.168427 193.0 
179.294586 119.0 
179.319168 182.0 
179.352859 255.0 
179.381729 80.0 
179.474274 116.0 
179.50383 160.0 
179.530258 167.0 
179.586929 117.0 
179.614944 141.0 
179.656189 234.0 
179.805954 71.0 
179.830734 138.0 
179.950119 87.0 
180.037537 37199.0 
180.099747 258.0 
180.144104 81.0 
180.306274 78.0 
180.333145 100.0 
180.759979 132.0 
180.830276 65.0 
180.878418 79.0 
180.929535 124.0 
181.016113 655.0 
181.03772 1453.0 
181.065186 1337.0 
181.104233 207.0 
181.143799 133.0 
181.212738 65.0 
181.251801 98.0 
181.299393 121.0 
181.408508 392.0 
181.45018 255.0 
181.476624 324.0 
181.551193 362.0 
181.58783 97.0 
181.868713 158.0 
182.014511 206.0 
182.053223 220.0 
182.383667 130.0 
182.639725 115.0 
183.079514 1873.0 
183.573929 108.0 
184.054596 155.0 
184.08049 484.0 
185.043457 297.0 
187.031601 474.0 
187.079391 184.0 
188.113602 135.0 
188.955765 70.0 
190.030411 157.0 
190.704285 371.0 
191.08252 273.0 
191.172501 146.0 
192.524612 228.0 
193.065918 474.0 
194.073502 1685.0 
195.045029 184.0 
195.082642 529.0 
195.612381 392.0 
196.048538 196.0 
196.094147 157.0 
197.000534 592.0 
197.044113 25687.0 
197.090347 171.0 
198.046066 2104.0 
198.094208 173.0 
198.245972 211.0 
199.007568 269.0 
199.042999 204.0 
199.623215 104.0 
200.043762 328.0 
201.068665 211.0 
201.09201 370.0 
201.958038 80.0 
202.077682 134.0 
202.97522 128.0 
203.107819 198.0 
203.213852 94.0 
204.061188 347.0 
204.95256 305.0 
205.065506 2638.0 
205.252548 240.0 
206.074524 394.0 
207.08255 1096.0 
207.58725 134.0 
208.103622 235.0 
209.053024 90.0 
209.094574 2548.0 
209.137787 175.0 
210.068161 150.0 
211.03595 225.0 
211.074539 3414.0 
211.154129 217.0 
212.033264 68.0 
212.080673 1349.0 
212.396881 183.0 
212.548157 235.0 
213.050934 100.0 
215.066574 270.0 
215.867767 104.0 
218.967636 144.0 
219.082245 192.0 
219.551666 156.0 
220.074371 630.0 
222.067627 2335.0 
223.075439 2081.0 
223.151581 333.0 
224.076782 433.0 
225.071671 181.0 
225.089661 227.0 
226.074203 339.0 
226.099594 378.0 
227.106598 2782.0 
228.044159 191.0 
228.108124 147.0 
229.050125 931.0 
229.084549 997.0 
229.298492 70.0 
229.625687 157.0 
230.062607 420.0 
230.085327 254.0 
232.041107 133.0 
233.051865 382.0 
234.059982 190.0 
235.073517 854.0 
235.342102 239.0 
235.553177 347.0 
236.077942 455.0 
236.999481 258.0 
237.090088 3458.0 
237.261292 132.0 
237.29068 180.0 
238.061996 364.0 
238.09697 506.0 
239.062912 142.0 
239.10611 363.0 
239.724854 165.0 
240.036499 210.0 
240.09903 140.0 
240.819763 202.0 
241.085251 3469.0 
242.091537 1585.0 
243.076309 790.0 
245.052231 231.0 
246.052917 329.0 
246.307465 343.0 
250.020279 115.0 
250.061127 1613.0 
251.067398 766.0 
252.083374 72.0 
252.965622 199.0 
253.057526 201.0 
253.086426 207.0 
255.033218 462.0 
255.067123 2004.0 
255.105957 980.0 
256.069031 195.0 
256.103729 376.0 
257.044067 508.0 
257.071259 469.0 
258.082245 147.0 
258.293732 292.0 
263.013062 301.0 
263.320099 116.0 
263.472198 139.0 
265.086365 5892.0 
266.087769 1428.0 
267.068298 228.0 
267.090149 284.0 
267.202759 271.0 
268.066772 480.0 
269.088531 163.0 
270.363159 187.0 
271.09787 45417.0 
271.174347 205.0 
271.533417 113.0 
271.716858 205.0 
271.984406 133.0 
272.102295 5798.0 
272.313812 163.0 
273.111389 338.0 
273.787659 249.0 
273.8862 96.0 
274.048187 1073.0 
275.051819 336.0 
276.062622 213.0 
279.042786 228.0 
280.096893 163.0 
281.337219 177.0 
281.427734 204.0 
282.298523 155.0 
282.359131 166.0 
282.829285 131.0 
282.941528 396.0 
282.974762 81.0 
283.097015 141872.0 
283.244507 272.0 
283.388611 65.0 
283.504883 179.0 
283.659454 116.0 
283.718811 62.0 
284.039795 410.0 
284.100037 18170.0 
284.161682 146.0 
285.068848 193.0 
285.096222 434.0 
285.747131 102.0 
286.559235 62.0 
287.095612 201.0 
288.799011 244.0 
289.071136 9720.0 
289.683929 199.0 
290.075256 1386.0 
292.133911 78.0 
292.70517 186.0 
295.096008 266.0 
302.596863 274.0 
313.678741 166.0 
315.091705 223.0 
316.352936 241.0 
319.47467 242.0 
319.51355 129.0 
320.231659 299.0 
323.483032 287.0 
325.164917 266.0 
326.088135 106.0 
328.802368 209.0 
328.946564 107.0 
332.028839 188.0 
332.637451 262.0 
336.531616 74.0 
338.205017 135.0 
343.107147 126.0 
358.126343 333.0 
358.406036 172.0 
359.098175 129.0 
364.837769 235.0 
375.124298 277.0 
377.246704 250.0 
378.211395 312.0 
378.91156 202.0 
387.862518 178.0 
388.4263 95.0 
390.035278 103.0 
390.081757 78.0 
390.512146 95.0 
390.602783 96.0 
390.911346 174.0 
391.38382 141.0 
391.742706 127.0 
391.774078 105.0 
391.859222 163.0 
392.025879 194.0 
392.095123 131.0 
392.196808 183.0 
392.321136 159.0 
392.415253 188.0 
392.535339 386.0 
392.604828 210.0 
392.651794 72.0 
392.803009 133.0 
392.879089 190.0 
392.91153 939.0 
392.978973 457.0 
393.044128 2225.0 
393.134888 351831.0 
393.246368 435.0 
393.292908 393.0 
393.406891 220.0 
393.450806 89.0 
393.484375 261.0 
393.553497 113.0 
393.613007 355.0 
393.642273 355.0 
393.748871 155.0 
393.980164 111.0 
394.13855 60709.0 
394.390289 263.0 
394.451569 67.0 
394.521484 286.0 
394.594452 79.0 
394.879211 136.0 
395.140747 1284.0 
395.417633 91.0 
395.730865 70.0 
395.864105 105.0 
396.035858 94.0 
396.134552 63.0 
396.424835 131.0 
396.488647 128.0 
396.609619 126.0 
397.639038 114.0 
414.591797 107.0 
468.638062 88.0 
481.471191 70.0 
546.6828 77.0 
592.576172 89.0 
904.929016 114.0 
1401.343018 111.0 
1622.669189 208.0 
1653.227783 258.0 
1676.032715 253.0 
1719.852417 191.0 
1847.289062 251.0 
1857.931763 314.0 
1870.84375 128.0 
1946.124146 274.0 
1983.424438 176.0 
1999.050781 169.0 
2003.154907 253.0 
END IONS

BEGIN IONS
TITLE=Scan Number: 568
PEPMASS=409.14899
CHARGE=1+
MSLEVEL=2
FILENAME=G9_GG9_01_2726.mzXML
INSTRUMENT=ion trap
SCANS=568
SMILES=CC(C)(O[C@@H]1O[C@H](CO)[C@@H](O)[C@H](O)[C@H]1O)C2CC3=C(O2)C=CC4=C3OC(=O)C=C4
INCHIKEY=UCJHITBUIWHISE-GMMZNBDUSA-N
83.079491 153.0 
85.027512 231.0 
87.070183 302.0 
91.055824 264.0 
99.806709 319.0 
103.054382 169.0 
105.067276 138.0 
115.040962 237.0 
119.047554 363.0 
121.061256 193.0 
131.048325 1539.0 
132.053604 172.0 
142.077225 141.0 
143.027664 181.0 
143.049942 901.0 
143.087448 125.0 
146.078949 158.0 
147.043808 1620.0 
147.07193 257.0 
148.048019 530.0 
155.083511 416.0 
156.094818 227.0 
157.100525 154.0 
159.04306 1117.0 
159.081558 355.0 
160.045761 337.0 
161.061371 299.0 
161.091248 421.0 
163.033569 163.0 
164.04126 138.0 
169.062683 232.0 
173.095139 278.0 
174.816513 125.0 
175.039001 16767.0 
175.073105 219.0 
175.705017 143.0 
176.04483 1203.0 
177.050507 407.0 
177.455078 90.0 
183.083603 377.0 
187.037933 7649.0 
187.077179 339.0 
188.043411 546.0 
188.083664 113.0 
189.052338 581.0 
190.057983 152.0 
190.699051 173.0 
193.048172 157.0 
200.046478 89.0 
201.055405 659.0 
201.091187 521.0 
203.077286 339.0 
214.055557 180.0 
216.045349 145.0 
216.071747 409.0 
219.064423 159.0 
228.080048 131.0 
229.08638 5774.0 
230.088409 1275.0 
231.128525 107.0 
231.844269 124.0 
237.097946 189.0 
246.999466 126.0 
247.096527 29372.0 
248.039642 174.0 
248.09993 2720.0 
258.453552 135.0 
291.014221 296.0 
349.06543 211.0 
409.201385 94.0 
END IONS

BEGIN IONS
TITLE=Scan Number: 569
PEPMASS=426.17599
CHARGE=1+
MSLEVEL=2
FILENAME=G9_GG9_01_2726.mzXML
INSTRUMENT=ion trap
SCANS=569
SMILES=CC(C)(O[C@@H]1O[C@H](CO)[C@@H](O)[C@H](O)[C@H]1O)C2CC3=C(O2)C=CC4=C3OC(=O)C=C4
INCHIKEY=UCJHITBUIWHISE-GMMZNBDUSA-N
85.026382 216.0 
114.036018 85.0 
115.034691 174.0 
129.06839 176.0 
131.046082 360.0 
135.078537 193.0 
137.028137 184.0 
137.057602 180.0 
145.049805 158.0 
147.029449 186.0 
149.687439 140.0 
155.035385 168.0 
159.024826 152.0 
159.04689 378.0 
162.090317 143.0 
164.422333 263.0 
173.060257 211.0 
175.037689 4143.0 
176.047256 892.0 
186.978943 270.0 
187.037811 2036.0 
187.078094 160.0 
188.04332 130.0 
189.022552 89.0 
189.059311 413.0 
199.048477 336.0 
201.048126 367.0 
203.066513 208.0 
229.024078 171.0 
229.092377 336.0 
246.123215 227.0 
247.096985 13851.0 
248.100082 978.0 
249.81871 171.0 
257.012573 169.0 
259.074554 207.0 
261.102722 168.0 
268.049194 135.0 
289.011932 155.0 
305.064209 170.0 
307.06308 104.0 
309.125122 239.0 
326.07785 160.0 
485.119904 213.0 
END IONS

BEGIN IONS
TITLE=Scan Number: 571
PEPMASS=409.12701
CHARGE=1+
MSLEVEL=2
FILENAME=G9_GG9_01_2726.mzXML
INSTRUMENT=ion trap
SCANS=571
SMILES=COC1=CC2=C(C=C1OC)[C@@]3(O)[C@@H](CO2)OC4=C(C(O)=CC5=C4C=CC(C)(C)O5)C3=O
INCHIKEY=OFLCPNIRDVOOEZ-WZONZLPQSA-N
69.99868 432.0 
70.145714 55.0 
70.314857 177.0 
71.166176 213.0 
71.34967 111.0 
72.108391 153.0 
73.370354 212.0 
73.856476 231.0 
75.481163 124.0 
75.726143 213.0 
75.94313 270.0 
76.363197 176.0 
78.040215 182.0 
78.818985 113.0 
79.054626 2406.0 
79.811638 45.0 
80.429703 318.0 
80.662689 122.0 
81.069229 6089.0 
81.097977 44.0 
82.071938 826.0 
82.287994 103.0 
82.464249 164.0 
82.543503 54.0 
83.049698 197.0 
83.252098 180.0 
84.249329 179.0 
85.312202 79.0 
85.636139 174.0 
85.794434 357.0 
86.232368 182.0 
88.364235 98.0 
90.043022 225.0 
91.054802 2692.0 
92.02623 196.0 
92.060501 396.0 
93.03212 119.0 
93.06929 997.0 
94.042061 165.0 
94.062912 267.0 
94.88308 251.0 
95.050224 419.0 
95.084709 121.0 
95.716904 250.0 
96.019737 441.0 
97.221413 154.0 
98.243111 273.0 
101.036461 216.0 
101.105118 120.0 
101.379883 289.0 
102.050011 291.0 
102.649483 139.0 
103.054375 183.0 
104.062759 206.0 
104.819298 48.0 
105.043182 1616.0 
105.069641 2750.0 
106.921211 140.0 
107.007744 213.0 
107.049599 3453.0 
107.086678 606.0 
108.049713 269.0 
108.084724 216.0 
108.923355 151.0 
109.013008 217.0 
109.065536 3925.0 
109.189613 295.0 
109.858704 300.0 
110.039955 506.0 
110.068512 155.0 
111.045738 140.0 
112.538353 288.0 
113.433365 245.0 
113.493782 241.0 
115.054497 661.0 
116.064415 150.0 
116.651016 427.0 
116.997826 140.0 
117.070656 61.0 
117.618011 235.0 
118.042793 527.0 
118.23175 138.0 
119.048958 1591.0 
119.085236 1218.0 
119.53685 250.0 
119.833481 52.0 
120.056122 2042.0 
120.359688 241.0 
121.024483 452.0 
121.065018 2218.0 
121.327843 132.0 
122.036194 184.0 
123.007454 126.0 
123.044258 917.0 
123.081055 418.0 
125.023247 119.0 
125.059265 646.0 
125.980293 184.0 
128.063187 232.0 
128.701263 164.0 
129.034042 674.0 
129.069702 1140.0 
129.344666 137.0 
130.001022 127.0 
130.040466 5356.0 
130.074646 171.0 
130.739273 328.0 
130.938614 242.0 
131.047134 3359.0 
131.084671 630.0 
131.734329 320.0 
132.05394 1814.0 
132.244781 253.0 
132.271271 198.0 
133.027496 1436.0 
133.063644 2792.0 
134.035187 257.0 
134.785049 56.0 
135.044586 7236.0 
135.078415 1064.0 
135.211182 77.0 
136.052246 339.0 
136.134796 257.0 
137.020157 227.0 
137.059219 212.0 
138.064926 218.0 
138.273209 193.0 
138.638901 117.0 
139.03862 166.0 
139.076492 409.0 
140.652893 350.0 
141.070755 206.0 
141.180054 118.0 
141.520081 130.0 
142.072159 148.0 
143.053604 733.0 
143.092575 338.0 
143.677216 184.0 
144.021927 479.0 
144.054581 438.0 
144.814438 258.0 
145.041962 287.0 
145.063354 1228.0 
145.19397 204.0 
146.036697 3802.0 
146.071854 622.0 
146.248566 247.0 
146.926453 178.0 
146.984192 275.0 
147.043839 97850.0 
147.081833 1262.0 
147.260178 67.0 
147.650223 132.0 
147.977234 229.0 
147.993637 266.0 
148.050186 13067.0 
148.126892 321.0 
148.494675 83.0 
149.024628 2357.0 
149.05954 9550.0 
149.196136 128.0 
149.279205 195.0 
150.027802 566.0 
150.064941 103.0 
150.214783 113.0 
150.970459 268.0 
151.041168 986.0 
151.073593 1122.0 
152.047211 794.0 
152.079849 422.0 
153.054321 1838.0 
153.105682 253.0 
153.333282 128.0 
154.063568 443.0 
155.064865 471.0 
155.081711 569.0 
157.027863 179.0 
157.066254 1912.0 
158.037628 3910.0 
158.070435 580.0 
158.209808 176.0 
159.043762 4437.0 
159.081802 512.0 
159.538544 62.0 
159.702301 60.0 
159.908798 212.0 
160.051132 5385.0 
160.591644 57.0 
160.642258 102.0 
160.776184 86.0 
161.024994 2127.0 
161.060364 3618.0 
161.368134 87.0 
162.030975 1837.0 
162.064743 1053.0 
162.890182 268.0 
162.961075 193.0 
163.001846 295.0 
163.03923 4670.0 
163.076172 3172.0 
164.028351 207.0 
164.046249 572.0 
164.080032 243.0 
164.711212 85.0 
164.874237 186.0 
165.01709 125.0 
165.056778 1862.0 
165.440033 234.0 
165.638474 322.0 
166.038834 64.0 
166.248093 337.0 
166.721298 251.0 
167.035339 834.0 
167.071014 1570.0 
167.450668 50.0 
167.630051 254.0 
168.071045 226.0 
169.066925 639.0 
169.692368 192.0 
170.037521 588.0 
170.904572 118.0 
170.980377 222.0 
171.043137 390.0 
171.082397 510.0 
172.046509 1363.0 
172.232071 178.0 
172.342667 172.0 
172.74054 156.0 
173.024216 377.0 
173.059189 1183.0 
173.094345 285.0 
174.041367 222.0 
174.068176 2422.0 
174.477493 200.0 
174.526154 40.0 
174.726089 140.0 
175.039215 20380.0 
175.075668 3908.0 
175.854248 244.0 
175.977478 296.0 
176.046982 44828.0 
176.103714 238.0 
176.27002 169.0 
176.345245 57.0 
176.39006 87.0 
176.572342 180.0 
176.821121 101.0 
176.95517 176.0 
177.052368 8485.0 
177.09285 204.0 
177.229279 55.0 
177.459427 94.0 
178.028305 144.0 
178.061676 4350.0 
178.178085 103.0 
178.505859 172.0 
178.578598 134.0 
179.065857 947.0 
179.156403 71.0 
180.041412 140.0 
180.146606 263.0 
180.213745 69.0 
180.608353 128.0 
181.049377 1551.0 
182.038132 287.0 
182.072495 588.0 
182.110489 216.0 
182.28949 67.0 
183.044388 402.0 
183.082581 429.0 
183.166382 187.0 
183.198044 195.0 
183.405304 263.0 
184.050522 299.0 
184.095779 336.0 
185.023239 160.0 
185.059845 1282.0 
185.095886 221.0 
185.353485 310.0 
186.067322 1560.0 
187.039246 3444.0 
187.075516 1985.0 
187.676285 155.0 
188.04689 2546.0 
188.08429 779.0 
188.318115 148.0 
188.464523 151.0 
188.656036 50.0 
188.990845 284.0 
189.054596 9596.0 
189.099579 447.0 
189.193619 133.0 
190.058731 2205.0 
190.218262 234.0 
190.273361 143.0 
190.56369 69.0 
190.60257 150.0 
190.663574 173.0 
190.752472 83.0 
190.819992 477.0 
190.940445 117.0 
191.005936 1148.0 
191.070786 276158.0 
191.21228 136.0 
191.2966 157.0 
191.319351 148.0 
191.443527 207.0 
191.467957 222.0 
191.493942 95.0 
191.518417 75.0 
191.579514 41.0 
191.897476 47.0 
191.95372 46.0 
192.002411 477.0 
192.073975 25269.0 
192.204346 153.0 
192.309479 336.0 
192.757263 95.0 
192.908234 52.0 
193.050217 1807.0 
193.125809 162.0 
193.361862 49.0 
193.441132 219.0 
193.506271 105.0 
193.532974 133.0 
193.550232 202.0 
193.577759 150.0 
193.609741 161.0 
193.652206 214.0 
194.023865 110.0 
194.054596 123.0 
194.078262 418.0 
194.537811 112.0 
195.079315 661.0 
195.119186 146.0 
195.470139 54.0 
196.052078 189.0 
196.084183 358.0 
196.129288 80.0 
196.332855 161.0 
197.06395 743.0 
198.032196 443.0 
198.106842 97.0 
198.193253 271.0 
199.00386 219.0 
199.037582 524.0 
199.07753 1259.0 
199.489655 51.0 
199.583786 132.0 
199.752274 91.0 
200.051666 1039.0 
200.386108 47.0 
201.025818 423.0 
201.05748 3159.0 
201.087555 663.0 
201.16037 71.0 
201.236038 317.0 
201.416779 40.0 
201.541275 96.0 
201.78595 74.0 
201.834671 143.0 
202.733109 56.0 
203.034363 9635.0 
203.070938 7747.0 
203.109695 386.0 
204.040741 1525.0 
204.074966 1414.0 
204.803879 144.0 
205.048264 1403.0 
205.085632 2012.0 
205.677231 135.0 
205.858994 201.0 
206.058701 498.0 
206.82782 40.0 
206.990662 184.0 
207.06694 1550.0 
207.367249 53.0 
208.069992 298.0 
208.527939 81.0 
209.056839 127.0 
209.084808 494.0 
209.508881 99.0 
209.737076 108.0 
210.092743 298.0 
211.036102 133.0 
211.074188 860.0 
211.666 76.0 
212.039612 99.0 
212.077148 490.0 
212.47525 115.0 
213.054031 2432.0 
213.090668 971.0 
213.609085 121.0 
214.06041 1230.0 
214.662201 163.0 
215.033737 2836.0 
215.071106 3072.0 
215.391083 219.0 
215.902603 294.0 
215.994675 340.0 
216.041489 8982.0 
216.077957 445.0 
216.745316 273.0 
216.898209 51.0 
216.968979 157.0 
217.049423 8954.0 
217.0858 559.0 
217.257614 134.0 
217.846878 40.0 
218.053299 1370.0 
218.248566 173.0 
218.650909 99.0 
219.066711 7550.0 
220.010681 179.0 
220.086121 837.0 
220.191315 308.0 
220.970825 65.0 
221.046997 2073.0 
221.092041 143.0 
221.11702 350.0 
222.044464 149.0 
222.065903 119.0 
222.094955 113.0 
222.680893 84.0 
223.064529 159.0 
223.115097 98.0 
223.945694 137.0 
224.034256 181.0 
224.088287 375.0 
224.11731 298.0 
225.023483 146.0 
225.055191 556.0 
225.089905 835.0 
225.834595 171.0 
226.064423 340.0 
226.101288 307.0 
227.034424 317.0 
227.06955 1533.0 
227.107941 212.0 
228.033936 442.0 
228.076843 640.0 
229.053406 308.0 
229.088455 447.0 
229.951965 155.0 
230.057465 575.0 
230.119141 222.0 
230.896713 187.0 
230.936508 315.0 
231.000885 225.0 
231.066895 17610.0 
232.069839 2507.0 
233.048523 375.0 
233.090668 792.0 
233.150864 162.0 
233.296661 59.0 
233.904312 78.0 
234.049759 259.0 
234.071152 318.0 
234.100632 326.0 
235.011673 184.0 
235.063736 5634.0 
235.100876 335.0 
235.249069 142.0 
235.330704 180.0 
235.399399 308.0 
235.794846 178.0 
235.878098 138.0 
236.078247 864.0 
236.112106 148.0 
236.28186 164.0 
236.701782 48.0 
237.010468 147.0 
237.038727 252.0 
237.062927 440.0 
237.088791 728.0 
238.065231 456.0 
238.095413 849.0 
239.02771 520.0 
239.071686 1978.0 
240.080139 879.0 
241.050049 1152.0 
241.083145 1123.0 
242.02269 196.0 
242.060883 913.0 
242.093338 187.0 
243.026993 484.0 
243.066788 2151.0 
243.102875 312.0 
243.13681 166.0 
244.041824 732.0 
244.079895 210.0 
244.440994 163.0 
244.981216 215.0 
245.057724 1133.0 
245.08461 2200.0 
246.055603 252.0 
246.099243 118.0 
247.082397 537.0 
248.023499 116.0 
248.080368 393.0 
248.127563 447.0 
248.630234 85.0 
249.056412 400.0 
249.08931 1301.0 
249.278488 175.0 
249.399689 243.0 
249.80928 204.0 
250.05983 230.0 
250.101242 457.0 
251.069595 1840.0 
251.111542 549.0 
252.077332 952.0 
252.109314 401.0 
252.616302 120.0 
253.050507 936.0 
253.078552 994.0 
254.056625 612.0 
254.089493 224.0 
255.063385 1503.0 
255.137558 163.0 
255.27829 220.0 
256.037476 121.0 
256.075714 913.0 
256.118896 317.0 
257.047821 424.0 
257.085022 1417.0 
257.119263 170.0 
257.16629 83.0 
257.991272 94.0 
258.068329 369.0 
258.4664 88.0 
258.636108 130.0 
258.769104 259.0 
258.933594 164.0 
259.006378 297.0 
259.061401 33476.0 
259.122223 244.0 
259.444458 65.0 
260.01236 151.0 
260.065155 4009.0 
261.066589 1016.0 
261.088623 1153.0 
262.062195 266.0 
262.095642 892.0 
262.289581 83.0 
262.767853 200.0 
262.795471 141.0 
263.041504 879.0 
263.070587 2837.0 
263.106781 838.0 
264.078949 1606.0 
264.141968 89.0 
264.281189 267.0 
264.431396 132.0 
264.757263 103.0 
265.049011 1152.0 
265.085693 1166.0 
265.125244 969.0 
265.251831 235.0 
265.959747 166.0 
266.033905 176.0 
266.063232 854.0 
267.032776 325.0 
267.071228 2225.0 
267.101532 1025.0 
268.036438 112.0 
268.073944 835.0 
268.117401 535.0 
269.049469 414.0 
269.083374 1561.0 
269.124268 360.0 
270.054413 516.0 
270.091034 302.0 
270.11969 355.0 
270.593414 275.0 
271.079102 163.0 
271.132324 579.0 
271.437531 64.0 
272.081665 186.0 
273.053101 532.0 
273.080902 1406.0 
273.354462 146.0 
274.095459 842.0 
274.907288 118.0 
275.069916 842.0 
275.106201 742.0 
276.039062 328.0 
276.077728 634.0 
276.114746 563.0 
276.689301 276.0 
277.087982 2494.0 
277.12796 140.0 
278.060638 719.0 
278.095184 886.0 
278.418427 137.0 
278.81189 105.0 
279.069366 1784.0 
279.101868 1653.0 
279.80838 390.0 
280.037872 405.0 
280.075531 3224.0 
280.176208 40.0 
281.040344 606.0 
281.080688 2434.0 
281.518127 325.0 
282.088348 1033.0 
283.009247 135.0 
283.044495 718.0 
283.098511 1042.0 
283.129608 288.0 
283.756226 106.0 
284.024689 143.0 
284.072571 262.0 
284.107117 1089.0 
284.48407 127.0 
285.003143 171.0 
285.070374 422.0 
285.092621 379.0 
285.164642 201.0 
286.877625 95.0 
287.072388 340.0 
288.081238 751.0 
288.119507 188.0 
288.539459 123.0 
288.836487 43.0 
289.090393 700.0 
290.058563 281.0 
290.092834 586.0 
290.886627 329.0 
291.015381 75.0 
291.067535 4116.0 
291.101105 1492.0 
292.03656 684.0 
292.071625 2194.0 
292.112427 320.0 
292.661591 53.0 
293.05072 668.0 
293.081024 2840.0 
293.116272 635.0 
293.54126 77.0 
294.050812 1687.0 
294.118805 762.0 
295.065033 4188.0 
295.102203 1768.0 
296.027588 271.0 
296.102173 1490.0 
296.913605 146.0 
297.073303 768.0 
297.11084 707.0 
297.738678 146.0 
298.081268 306.0 
298.759827 335.0 
299.040955 115.0 
299.060669 151.0 
299.092987 600.0 
299.133484 181.0 
300.074493 434.0 
301.075989 1093.0 
302.050232 435.0 
302.080933 1114.0 
302.245026 118.0 
303.039093 254.0 
303.066254 999.0 
303.097565 1188.0 
303.188538 96.0 
304.072815 1088.0 
304.1203 482.0 
305.083954 3149.0 
305.237762 53.0 
306.056305 1039.0 
306.085571 2126.0 
306.592804 185.0 
306.877563 137.0 
307.098755 4300.0 
307.134491 987.0 
307.333527 56.0 
307.450012 218.0 
307.490479 72.0 
307.585663 76.0 
308.070038 3413.0 
308.109009 1765.0 
308.91748 83.0 
309.040131 907.0 
309.075836 4394.0 
310.042114 609.0 
310.082855 851.0 
310.146576 224.0 
311.056641 1471.0 
311.128815 947.0 
311.4888 154.0 
312.063385 638.0 
312.132233 169.0 
312.222778 123.0 
313.085388 417.0 
314.090637 154.0 
315.105164 472.0 
315.884644 88.0 
316.069031 298.0 
316.113831 224.0 
317.08429 1866.0 
317.345001 104.0 
318.014587 181.0 
318.049713 673.0 
318.090973 1311.0 
318.665833 171.0 
318.751465 264.0 
318.860809 63.0 
319.061127 9503.0 
319.096619 3692.0 
319.52597 226.0 
319.686371 82.0 
319.864288 120.0 
320.062439 2637.0 
320.102478 1520.0 
320.31781 83.0 
321.001404 327.0 
321.07605 3488.0 
321.112701 3415.0 
322.046112 679.0 
322.081207 2436.0 
322.124451 575.0 
322.811279 51.0 
323.054657 7253.0 
323.092651 9911.0 
324.023346 118.0 
324.063629 830.0 
324.09668 1407.0 
324.3573 99.0 
325.044617 307.0 
325.075134 1033.0 
325.143738 1862.0 
326.020142 107.0 
326.080322 567.0 
326.166382 229.0 
326.909973 307.0 
327.048279 95.0 
327.082855 209.0 
328.090363 265.0 
328.570282 305.0 
329.081726 365.0 
329.123383 179.0 
330.065765 376.0 
330.766174 196.0 
331.100098 1759.0 
331.571716 85.0 
331.921783 60.0 
332.071747 2627.0 
332.104004 775.0 
332.213409 93.0 
333.076385 4276.0 
333.115845 514.0 
333.239502 138.0 
333.901215 110.0 
333.995514 253.0 
334.084991 3264.0 
334.12616 126.0 
334.912659 201.0 
335.056274 872.0 
335.09198 5870.0 
335.623199 130.0 
336.06073 2990.0 
336.100677 2358.0 
336.250336 249.0 
336.766693 231.0 
336.952454 136.0 
337.034943 658.0 
337.071991 2144.0 
337.10791 7122.0 
338.078247 2015.0 
338.11615 2179.0 
338.261292 73.0 
338.800262 126.0 
339.094666 2819.0 
339.119568 3408.0 
339.709717 41.0 
339.909271 144.0 
340.07486 288.0 
340.125031 448.0 
340.710327 268.0 
341.966888 43.0 
343.266724 59.0 
344.072235 219.0 
344.929535 84.0 
345.077545 1071.0 
346.077576 425.0 
346.238953 410.0 
346.550507 169.0 
347.012817 232.0 
347.057617 5938.0 
347.08963 4063.0 
347.274475 198.0 
347.434753 205.0 
347.791382 168.0 
347.946381 392.0 
348.065216 2917.0 
348.097229 2567.0 
348.687439 120.0 
348.920258 140.0 
348.963318 250.0 
349.07254 2962.0 
349.107697 7448.0 
349.891998 192.0 
350.058411 339.0 
350.112579 1490.0 
350.367004 418.0 
350.525238 84.0 
350.600555 68.0 
350.831207 119.0 
350.959503 83.0 
351.019745 561.0 
351.088409 36576.0 
351.854156 81.0 
352.093445 7181.0 
352.408966 70.0 
352.633636 114.0 
352.963318 44.0 
353.00824 165.0 
353.094238 697.0 
353.137238 1568.0 
353.261475 73.0 
353.988068 43.0 
354.342682 51.0 
354.64209 84.0 
355.080719 751.0 
356.06842 46.0 
357.027313 137.0 
358.084656 259.0 
359.088348 981.0 
360.087341 818.0 
361.011078 136.0 
361.072693 3596.0 
361.629059 132.0 
362.079742 6688.0 
362.279327 241.0 
362.619141 264.0 
362.943146 168.0 
363.035889 841.0 
363.087769 13608.0 
363.121368 8243.0 
363.983765 473.0 
364.090759 2465.0 
364.126648 1016.0 
364.20575 173.0 
364.508911 98.0 
364.750244 171.0 
364.978302 297.0 
365.010315 403.0 
365.060791 1823.0 
365.103607 15916.0 
365.23233 251.0 
365.780121 59.0 
366.056824 413.0 
366.109009 8081.0 
366.181091 142.0 
366.230713 161.0 
366.686188 42.0 
367.043701 144.0 
367.082977 1574.0 
367.115326 2981.0 
367.559631 272.0 
368.08606 279.0 
368.122192 904.0 
368.1698 58.0 
368.216034 306.0 
368.762451 88.0 
368.893219 165.0 
369.005951 334.0 
369.078308 214.0 
369.298553 51.0 
369.921539 169.0 
370.180603 95.0 
370.374237 46.0 
371.343933 326.0 
371.801178 105.0 
371.83017 216.0 
371.861816 200.0 
373.09903 728.0 
373.266693 265.0 
374.122894 176.0 
375.086517 466.0 
375.17514 119.0 
375.194092 105.0 
375.276917 93.0 
375.964111 269.0 
376.096405 939.0 
376.203186 258.0 
376.245483 220.0 
376.982483 136.0 
377.028015 85.0 
377.104706 4441.0 
377.437561 273.0 
377.577972 110.0 
377.830658 318.0 
378.112274 4138.0 
378.766724 85.0 
378.843262 200.0 
378.936554 115.0 
378.975952 351.0 
379.08194 8624.0 
379.474304 75.0 
379.512878 61.0 
379.657043 179.0 
379.748627 317.0 
380.082764 2134.0 
380.3638 184.0 
380.643127 57.0 
380.702148 200.0 
380.730469 158.0 
380.840607 55.0 
380.900421 268.0 
380.950409 209.0 
381.017792 749.0 
381.135742 230820.0 
381.221375 76.0 
381.25827 268.0 
381.30014 635.0 
381.342072 111.0 
381.389801 66.0 
381.460968 129.0 
381.604279 140.0 
381.850433 173.0 
381.910187 220.0 
381.988403 47.0 
382.039154 416.0 
382.080261 521.0 
382.139343 36087.0 
382.346832 204.0 
382.616333 130.0 
382.681122 95.0 
382.872681 68.0 
383.084412 75.0 
383.150024 1482.0 
383.379333 193.0 
383.740967 178.0 
383.817352 113.0 
384.168884 263.0 
384.235474 151.0 
384.31662 200.0 
384.359497 65.0 
384.446045 330.0 
384.534363 120.0 
384.601257 82.0 
384.709717 60.0 
384.827087 60.0 
384.896118 97.0 
385.503845 74.0 
385.594421 86.0 
385.669434 140.0 
386.235535 368.0 
388.27121 286.0 
390.414825 49.0 
391.125305 1782.0 
392.125854 486.0 
393.030151 151.0 
393.094666 802.0 
394.059296 207.0 
394.106842 2537.0 
395.028229 74.0 
395.120514 334.0 
396.250397 74.0 
396.895813 180.0 
397.350983 179.0 
397.763733 84.0 
398.461243 119.0 
400.043182 81.0 
401.94574 214.0 
404.834595 181.0 
407.274048 80.0 
407.354492 244.0 
407.649811 88.0 
407.887604 574.0 
408.125854 101.0 
408.155212 212.0 
408.517975 154.0 
408.554993 71.0 
408.71817 356.0 
408.78418 214.0 
408.867584 79.0 
408.932678 610.0 
408.969543 318.0 
409.130707 290918.0 
409.20166 188.0 
409.261047 214.0 
409.297333 684.0 
409.413849 301.0 
409.463867 114.0 
409.516418 72.0 
409.584412 203.0 
409.691803 192.0 
409.713013 178.0 
409.815857 289.0 
409.913086 176.0 
409.962524 44.0 
409.999176 135.0 
410.046234 554.0 
410.134033 52052.0 
410.229858 139.0 
410.278076 185.0 
410.334381 71.0 
410.391388 77.0 
410.453522 49.0 
410.518066 180.0 
410.577545 119.0 
410.62204 486.0 
410.709259 137.0 
411.028992 101.0 
411.060638 110.0 
411.130859 901.0 
411.230438 159.0 
412.165192 125.0 
412.39859 283.0 
412.489838 262.0 
412.576416 235.0 
412.663788 454.0 
412.713348 131.0 
412.791229 236.0 
412.839691 101.0 
412.890656 139.0 
412.985504 179.0 
413.036133 79.0 
414.878845 61.0 
417.602753 81.0 
425.4505 85.0 
427.151459 60.0 
429.148956 129.0 
430.365479 40.0 
433.68634 54.0 
779.57135 111.0 
845.317688 242.0 
909.148743 142.0 
1247.379028 102.0 
1786.542358 182.0 
END IONS

BEGIN IONS
TITLE=Scan Number: 572
PEPMASS=449.12
CHARGE=1+
MSLEVEL=2
FILENAME=G9_GG9_01_2726.mzXML
INSTRUMENT=ion trap
SCANS=572
SMILES=COC1=CC2=C(C=C1OC)[C@@]3(O)[C@@H](CO2)OC4=C(C(O)=CC5=C4C=CC(C)(C)O5)C3=O
INCHIKEY=OFLCPNIRDVOOEZ-WZONZLPQSA-N
71.375504 357.0 
79.02063 335.0 
99.671478 224.0 
106.043732 161.0 
107.04911 383.0 
107.083908 161.0 
110.033211 150.0 
125.065857 280.0 
130.025742 181.0 
135.043396 620.0 
138.028854 309.0 
146.041718 122.0 
148.714432 261.0 
149.02446 4466.0 
150.025116 177.0 
153.054184 1582.0 
154.05574 538.0 
163.010788 118.0 
163.035339 664.0 
164.040848 358.0 
165.047913 208.0 
166.025497 728.0 
176.023331 174.0 
177.016083 139.0 
181.050262 850.0 
182.012756 272.0 
194.022354 4901.0 
195.024704 887.0 
200.074509 192.0 
205.198944 158.0 
207.267929 186.0 
207.882385 108.0 
207.952896 118.0 
208.844925 141.0 
208.960129 210.0 
209.045074 51842.0 
209.116165 274.0 
209.186981 104.0 
209.357971 134.0 
209.414597 129.0 
209.933624 106.0 
210.047913 4882.0 
210.428009 93.0 
211.263885 99.0 
211.552322 98.0 
211.581848 82.0 
211.653748 100.0 
239.05513 184.0 
275.50293 109.0 
1720.567749 204.0 
END IONS

BEGIN IONS
TITLE=Scan Number: 573
PEPMASS=595.16498
CHARGE=1+
MSLEVEL=2
FILENAME=G9_GG9_01_2726.mzXML
INSTRUMENT=ion trap
SCANS=573
SMILES=C[C@@H]1O[C@@H](OC[C@H]2O[C@@H](OC3=C(OC4=C(C3=O)C(O)=CC(O)=C4)C5=CC=C(O)C=C5)[C@H](O)[C@@H](O)[C@@H]2O)[C@H](O)[C@H](O)[C@H]1O
INCHIKEY=RTATXGUCZHCSNG-QHWHWDPRSA-N
71.011993 329.0 
71.028458 420.0 
71.04805 5480.0 
72.050903 459.0 
73.026764 414.0 
73.0634 150.0 
75.036926 375.0 
81.034332 1084.0 
82.468506 133.0 
83.047302 772.0 
83.940979 213.0 
85.005936 453.0 
85.027939 18500.0 
86.031303 653.0 
87.00499 239.0 
87.028374 174.0 
87.043373 515.0 
91.032829 275.0 
91.758369 173.0 
92.018295 114.0 
94.719124 219.0 
97.028473 1527.0 
99.045135 638.0 
100.051285 306.0 
101.061676 433.0 
103.15757 278.0 
104.718597 253.0 
106.444977 160.0 
107.046417 430.0 
108.309341 222.0 
108.622971 235.0 
109.028786 726.0 
111.002495 127.0 
111.041344 453.0 
112.63414 298.0 
117.432281 262.0 
121.029282 1221.0 
125.063347 147.0 
126.367531 295.0 
127.039497 1613.0 
128.078979 232.0 
128.702698 198.0 
129.054993 3520.0 
132.838028 204.0 
135.041077 123.0 
141.774231 155.0 
145.049255 2715.0 
145.28096 93.0 
146.060577 117.0 
146.720062 260.0 
147.047516 688.0 
147.065475 1586.0 
148.09906 239.0 
152.989304 224.0 
153.017395 1864.0 
153.0522 179.0 
155.02301 296.0 
157.066803 338.0 
159.05864 103.0 
161.058502 173.0 
163.062912 137.0 
165.017288 1177.0 
168.060226 209.0 
171.040863 169.0 
172.99527 120.0 
173.061203 163.0 
178.877579 403.0 
181.832489 151.0 
184.055725 203.0 
185.042221 165.0 
187.114639 164.0 
189.506821 303.0 
194.009094 102.0 
195.037476 214.0 
201.054947 161.0 
203.033447 208.0 
211.103256 163.0 
212.501602 75.0 
213.053238 938.0 
221.391663 265.0 
222.09053 145.0 
224.048767 400.0 
228.834747 322.0 
229.086884 194.0 
231.064194 778.0 
232.068115 371.0 
233.345795 199.0 
235.24704 280.0 
241.049866 357.0 
241.140594 157.0 
242.06308 187.0 
247.09697 410.0 
247.31665 235.0 
253.6875 153.0 
255.083038 340.0 
255.533585 325.0 
257.078186 227.0 
258.062286 382.0 
259.056793 498.0 
259.102966 104.0 
259.529236 136.0 
260.071594 346.0 
263.253204 351.0 
263.622192 82.0 
264.030518 210.0 
265.923706 213.0 
269.039978 331.0 
269.356689 263.0 
273.6828 88.0 
274.104279 209.0 
275.187286 141.0 
278.112213 280.0 
280.704865 261.0 
281.552979 151.0 
282.391388 233.0 
283.737885 118.0 
284.601349 129.0 
285.262421 134.0 
285.303375 187.0 
285.345093 327.0 
285.38382 99.0 
285.464294 116.0 
285.94931 313.0 
286.015106 134.0 
286.055603 433.0 
286.107269 123.0 
286.187469 112.0 
286.296326 149.0 
286.377472 159.0 
286.450867 147.0 
286.632111 141.0 
286.749939 146.0 
286.776031 338.0 
286.900482 442.0 
286.93454 278.0 
287.056213 464740.0 
287.227661 104.0 
287.392731 310.0 
287.555206 138.0 
287.641449 195.0 
287.780609 69.0 
287.858948 100.0 
287.923248 183.0 
288.059265 55109.0 
288.181274 186.0 
288.352936 191.0 
288.876587 79.0 
289.061127 3557.0 
289.531189 150.0 
289.705688 156.0 
289.76709 149.0 
289.85083 125.0 
289.895386 255.0 
289.934723 269.0 
289.970673 305.0 
290.019501 119.0 
290.064331 436.0 
290.165436 162.0 
290.208527 305.0 
290.257233 131.0 
290.42923 127.0 
290.975555 103.0 
291.246613 129.0 
291.628143 92.0 
292.016357 100.0 
293.561584 89.0 
294.49527 91.0 
296.104034 181.0 
298.756348 86.0 
299.048828 115.0 
300.965668 100.0 
302.834503 104.0 
306.299438 85.0 
311.431885 90.0 
313.060547 108.0 
321.075897 156.0 
326.068359 221.0 
329.066071 643.0 
345.102631 140.0 
349.104034 170.0 
354.075836 155.0 
363.803528 209.0 
376.886627 107.0 
399.309998 259.0 
413.092255 215.0 
416.05069 68.0 
433.123352 239.0 
449.110931 8161.0 
449.756439 72.0 
450.108398 775.0 
452.658813 109.0 
463.176788 166.0 
578.291748 256.0 
595.143066 127.0 
595.259399 267.0 
596.321716 154.0 
1453.645752 177.0 
1589.563477 78.0 
END IONS

BEGIN IONS
TITLE=Scan Number: 575
PEPMASS=405.16901
CHARGE=1+
MSLEVEL=2
FILENAME=E2_RE2_01_2936.mzXML
INSTRUMENT=ion trap
SCANS=575
SMILES=CCC(C)C(=O)C1=C2OC(C)(C)C=CC2=C3OC(=O)C=C(C4=CC=CC=C4)C3=C1O
INCHIKEY=YJSXHUXXMDAOCE-UHFFFAOYSA-N
70.106041 254.0 
71.453194 124.0 
71.806396 247.0 
73.028839 212.0 
73.961327 284.0 
74.594818 205.0 
77.037346 385.0 
77.581825 213.0 
78.041405 291.0 
78.556053 277.0 
78.655739 191.0 
79.054482 1160.0 
79.895218 224.0 
79.957024 200.0 
81.06926 1250.0 
81.102554 157.0 
82.768982 100.0 
83.00956 93.0 
84.51693 209.0 
85.063637 386.0 
85.405197 197.0 
86.388077 343.0 
87.20652 165.0 
88.011597 195.0 
88.053474 164.0 
88.077728 157.0 
88.373955 137.0 
88.428284 130.0 
88.687996 208.0 
89.77459 329.0 
91.054489 3118.0 
91.986572 179.0 
92.05793 158.0 
92.21209 190.0 
93.033295 152.0 
93.070602 481.0 
93.102211 283.0 
94.07988 76.0 
95.05027 1415.0 
97.028534 195.0 
99.081642 439.0 
99.130821 193.0 
99.362709 266.0 
99.801224 211.0 
100.206764 150.0 
100.94648 135.0 
101.505226 180.0 
102.049492 124.0 
102.733658 244.0 
103.054321 3207.0 
103.161049 136.0 
103.750343 219.0 
104.062683 267.0 
104.39994 196.0 
104.79377 134.0 
105.034477 11212.0 
105.070671 931.0 
105.134644 282.0 
105.167412 191.0 
105.409889 153.0 
106.012756 212.0 
106.038803 438.0 
106.07029 344.0 
106.088028 276.0 
106.400513 310.0 
106.59761 289.0 
106.914589 295.0 
107.049957 926.0 
107.087242 404.0 
108.057228 215.0 
108.919067 152.0 
109.063347 1908.0 
109.111855 122.0 
109.240952 81.0 
110.011795 168.0 
110.073425 351.0 
110.472992 212.0 
110.628418 232.0 
111.083046 127.0 
111.285545 207.0 
111.385147 289.0 
114.045403 183.0 
114.162834 181.0 
115.030807 170.0 
115.054466 4587.0 
115.711105 211.0 
116.05619 446.0 
116.198975 165.0 
117.018044 221.0 
117.068466 671.0 
117.352371 180.0 
117.371147 250.0 
118.391174 245.0 
119.009605 138.0 
119.048973 1849.0 
119.088585 543.0 
120.049286 118.0 
120.097198 323.0 
121.067993 562.0 
122.156494 329.0 
123.042038 229.0 
123.081596 606.0 
123.495232 98.0 
125.095993 154.0 
125.136292 241.0 
125.258698 309.0 
125.400688 310.0 
125.831497 226.0 
126.071014 269.0 
127.071419 359.0 
127.926971 219.0 
128.060623 447.0 
129.033752 1203.0 
129.068909 2016.0 
130.006805 285.0 
130.065796 169.0 
130.082809 172.0 
131.047867 1011.0 
131.086136 443.0 
132.046036 217.0 
133.027588 261.0 
133.067123 1541.0 
133.101852 185.0 
134.386017 142.0 
135.043945 2599.0 
135.077759 128.0 
135.458115 145.0 
136.043594 419.0 
136.562119 242.0 
137.059631 1088.0 
138.248917 401.0 
138.344482 226.0 
140.060333 135.0 
140.259796 285.0 
141.067963 1440.0 
142.077805 388.0 
143.043732 217.0 
143.085205 623.0 
144.058197 389.0 
145.009491 158.0 
145.063477 1468.0 
145.106613 127.0 
145.156815 338.0 
145.896927 105.0 
147.012375 170.0 
147.075012 986.0 
148.077408 315.0 
149.065231 423.0 
149.133072 176.0 
150.019928 134.0 
150.230408 248.0 
150.6465 124.0 
151.028351 148.0 
151.082138 178.0 
151.887604 206.0 
152.063492 461.0 
153.05191 2230.0 
153.069595 1434.0 
153.527847 164.0 
154.063477 234.0 
154.083832 310.0 
155.058563 1226.0 
155.084915 1390.0 
156.055191 194.0 
156.088547 913.0 
156.189209 159.0 
157.066193 615.0 
157.101181 372.0 
158.066223 558.0 
158.099335 195.0 
158.396408 194.0 
159.019211 89.0 
159.038879 165.0 
159.078705 662.0 
159.117966 396.0 
160.088943 557.0 
160.582932 219.0 
161.059952 303.0 
161.092957 343.0 
161.127457 366.0 
162.063141 175.0 
162.196869 240.0 
162.746231 107.0 
163.074417 638.0 
163.415222 277.0 
164.29129 189.0 
165.021225 310.0 
165.067902 2080.0 
165.952911 80.0 
166.046219 294.0 
166.075363 639.0 
167.054657 293.0 
167.084152 2361.0 
167.152481 125.0 
168.055679 208.0 
168.096649 361.0 
169.065781 1920.0 
169.104126 807.0 
169.317459 254.0 
170.064819 118.0 
170.105576 409.0 
170.517792 325.0 
171.044312 14246.0 
171.080719 606.0 
171.115646 394.0 
171.861908 362.0 
172.046173 677.0 
172.126358 180.0 
172.338303 105.0 
173.01828 94.0 
173.06163 654.0 
173.094635 319.0 
173.134277 363.0 
173.998688 244.0 
174.068954 189.0 
174.098206 374.0 
174.56842 147.0 
175.667984 145.0 
176.21608 273.0 
176.658005 303.0 
177.017365 189.0 
177.063034 583.0 
177.685577 190.0 
177.86351 107.0 
178.039154 137.0 
178.077179 1489.0 
179.056259 426.0 
179.084229 2331.0 
180.061127 158.0 
180.090103 1516.0 
181.065659 2056.0 
181.101334 946.0 
182.074371 115.0 
182.110352 411.0 
183.042496 768.0 
183.080917 1939.0 
183.118469 160.0 
184.084076 346.0 
184.987244 175.0 
185.060059 459.0 
185.552246 93.0 
186.100189 92.0 
186.154144 323.0 
187.072861 396.0 
187.110245 1135.0 
188.075714 202.0 
188.116943 234.0 
189.054901 2508.0 
189.102325 210.0 
189.128662 1543.0 
190.057266 637.0 
190.077347 1062.0 
190.135498 250.0 
190.917923 203.0 
191.083038 2233.0 
192.053391 272.0 
192.091599 1962.0 
193.076233 727.0 
193.096497 872.0 
193.516953 155.0 
194.075104 109.0 
194.109024 286.0 
194.756256 318.0 
195.040497 328.0 
195.082504 1859.0 
195.113922 733.0 
195.371613 277.0 
195.513611 319.0 
195.844757 151.0 
196.083755 952.0 
196.124542 389.0 
196.853897 188.0 
196.99292 198.0 
197.063721 892.0 
197.09642 2063.0 
198.065079 524.0 
198.636292 104.0 
198.88382 153.0 
199.035995 1167.0 
199.066162 777.0 
199.110947 1724.0 
199.272308 251.0 
200.041565 536.0 
200.077805 373.0 
201.056229 771.0 
201.404831 192.0 
201.764008 123.0 
201.950424 164.0 
202.075317 2138.0 
202.115829 221.0 
203.082596 3181.0 
203.154755 229.0 
204.005051 205.0 
204.092499 2768.0 
204.439316 357.0 
205.065414 1398.0 
205.099701 3322.0 
206.048508 104.0 
206.080002 672.0 
206.102829 1088.0 
207.07782 1873.0 
207.111069 543.0 
207.927719 118.0 
208.087616 732.0 
208.794754 206.0 
209.06076 2116.0 
209.094254 2191.0 
209.386765 139.0 
210.067352 845.0 
210.100311 799.0 
211.011963 167.0 
211.073517 1199.0 
211.1064 812.0 
211.687744 155.0 
211.73909 210.0 
212.043228 172.0 
212.087143 977.0 
212.121674 362.0 
212.779648 185.0 
213.057037 612.0 
213.089539 186.0 
214.075684 156.0 
214.100067 168.0 
215.085312 5867.0 
216.093048 3670.0 
216.511383 84.0 
217.029144 193.0 
217.057343 456.0 
217.100616 4454.0 
217.291656 139.0 
217.679581 243.0 
218.072067 1759.0 
218.107178 2611.0 
218.261093 163.0 
219.080429 2690.0 
219.115173 2671.0 
219.355682 174.0 
220.051437 377.0 
220.086182 2001.0 
220.122055 655.0 
220.642044 235.0 
220.784561 133.0 
221.056732 1215.0 
221.092957 1946.0 
221.613205 263.0 
222.067764 368.0 
222.103683 1149.0 
222.340118 145.0 
223.03862 706.0 
223.075745 3385.0 
223.112854 2083.0 
223.31572 197.0 
223.510559 215.0 
224.038284 287.0 
224.078613 1262.0 
224.118271 727.0 
224.647278 140.0 
225.056229 1408.0 
225.091049 2477.0 
225.123108 435.0 
225.169342 163.0 
225.543289 110.0 
225.898697 87.0 
226.073456 1370.0 
226.141724 154.0 
226.658951 85.0 
226.715759 81.0 
227.035278 197.0 
227.078522 1128.0 
227.876984 293.0 
228.093201 4996.0 
228.312729 264.0 
228.356735 151.0 
229.098953 4237.0 
230.070724 505.0 
230.104706 2219.0 
230.183517 304.0 
230.272003 220.0 
230.450012 128.0 
231.079681 3160.0 
231.118515 2509.0 
232.048904 170.0 
232.087234 2265.0 
232.128708 570.0 
233.059189 309.0 
233.095154 4272.0 
233.13266 1772.0 
233.254944 117.0 
234.066391 1940.0 
234.102325 1412.0 
234.293198 173.0 
235.076691 2470.0 
235.110382 1649.0 
236.054062 678.0 
236.086044 550.0 
236.108139 412.0 
236.999603 108.0 
237.055679 749.0 
237.086914 1328.0 
237.129868 581.0 
237.499893 239.0 
238.005081 201.0 
238.070206 153.0 
238.096909 286.0 
238.149551 177.0 
238.949997 72.0 
239.035461 308.0 
239.073959 1340.0 
239.102753 527.0 
239.366348 92.0 
239.562653 140.0 
239.951401 110.0 
240.044434 497.0 
240.100906 1868.0 
240.291718 226.0 
240.34285 254.0 
241.055618 826.0 
241.099442 3999.0 
241.256622 96.0 
242.068024 825.0 
242.105621 2767.0 
243.052963 315.0 
243.114807 5242.0 
243.237442 138.0 
244.087708 2744.0 
244.121704 980.0 
244.153763 107.0 
245.095413 5053.0 
245.135208 870.0 
246.020279 118.0 
246.104019 4659.0 
246.7117 95.0 
247.075226 4908.0 
247.111313 5468.0 
247.145462 827.0 
247.994431 108.0 
248.036697 409.0 
248.083694 1699.0 
248.116058 2652.0 
248.86998 125.0 
249.06076 1586.0 
249.090332 2103.0 
249.125854 1021.0 
249.544312 198.0 
249.962708 193.0 
250.060547 774.0 
250.095245 923.0 
250.130859 308.0 
251.068253 2821.0 
251.103714 2929.0 
252.080566 1258.0 
252.11438 634.0 
253.046722 1091.0 
253.104752 2210.0 
253.121704 2299.0 
253.505051 153.0 
254.044113 134.0 
254.107452 1373.0 
254.245972 196.0 
254.796585 214.0 
255.117508 1852.0 
255.184448 140.0 
255.45694 332.0 
255.836761 116.0 
255.90976 147.0 
256.085846 2046.0 
256.124817 1312.0 
256.665405 136.0 
257.097748 3688.0 
257.133362 1685.0 
258.070221 581.0 
258.101837 3668.0 
258.136932 824.0 
259.074341 1411.0 
259.109955 7335.0 
259.234589 290.0 
259.281525 311.0 
260.084229 4051.0 
260.119568 3337.0 
260.906128 296.0 
261.013885 173.0 
261.091034 10456.0 
261.125824 4314.0 
261.36496 94.0 
261.563354 220.0 
261.971069 74.0 
262.058655 346.0 
262.09314 2503.0 
262.135956 258.0 
262.376282 169.0 
263.071167 5817.0 
263.104431 2450.0 
264.074554 835.0 
264.112 268.0 
264.330841 120.0 
265.045868 796.0 
265.088043 1766.0 
265.12085 1551.0 
265.705536 310.0 
265.966278 160.0 
266.081818 530.0 
266.110443 667.0 
266.710907 293.0 
267.06601 1623.0 
267.113831 1501.0 
267.632172 91.0 
268.083771 1027.0 
268.112091 592.0 
269.101044 1808.0 
269.985168 101.0 
270.103027 2309.0 
270.174286 154.0 
270.429718 203.0 
270.843536 114.0 
271.010101 106.0 
271.073608 1043.0 
271.113647 5858.0 
271.148102 1138.0 
272.0802 1164.0 
272.115967 2137.0 
272.323853 95.0 
272.778046 119.0 
273.091003 5222.0 
273.125946 3186.0 
273.836151 90.0 
274.060211 526.0 
274.099304 5054.0 
274.612457 131.0 
274.965668 197.0 
275.070557 9500.0 
275.106201 7518.0 
275.213318 222.0 
275.614929 144.0 
276.039764 199.0 
276.07251 3791.0 
276.113525 6515.0 
277.085876 9172.0 
277.122406 3210.0 
277.732239 208.0 
278.047974 159.0 
278.094299 1398.0 
278.261688 109.0 
279.016785 169.0 
279.064178 3488.0 
279.100922 6725.0 
279.272522 142.0 
279.681213 172.0 
280.071136 854.0 
280.101501 913.0 
280.490021 187.0 
280.576935 238.0 
281.101349 974.0 
281.12381 941.0 
282.069611 153.0 
282.106567 516.0 
282.131836 411.0 
283.066101 425.0 
283.111328 3998.0 
283.243622 153.0 
283.570862 162.0 
284.055939 211.0 
284.085358 1209.0 
284.118011 2274.0 
285.092285 2406.0 
285.123138 4230.0 
285.203796 150.0 
285.746307 156.0 
286.038208 155.0 
286.072418 468.0 
286.099976 1858.0 
286.132782 1538.0 
286.974976 100.0 
287.014496 143.0 
287.065887 1532.0 
287.105713 7603.0 
287.390839 173.0 
287.999023 379.0 
288.079132 2584.0 
288.112946 4246.0 
288.150543 1402.0 
288.320221 201.0 
288.9758 163.0 
289.085388 13976.0 
289.122406 21388.0 
289.163391 809.0 
289.26413 258.0 
289.968079 91.0 
290.092102 3903.0 
290.121368 2968.0 
290.608276 178.0 
291.062286 2068.0 
291.101685 11887.0 
291.917267 101.0 
292.012848 161.0 
292.070557 439.0 
292.101349 1922.0 
292.218903 108.0 
292.99234 169.0 
293.079041 948.0 
293.105988 903.0 
293.165588 229.0 
293.892029 151.0 
294.089966 1189.0 
294.402374 91.0 
295.05722 802.0 
295.107849 1730.0 
295.148193 238.0 
296.11673 733.0 
296.982727 217.0 
297.043121 96.0 
297.091064 2041.0 
297.124573 891.0 
297.969666 157.0 
298.100403 2543.0 
298.129974 1929.0 
298.967743 267.0 
299.105652 5731.0 
299.142181 2239.0 
299.480316 237.0 
300.114655 1464.0 
300.1521 749.0 
301.085266 8899.0 
301.119171 5996.0 
301.436768 107.0 
301.719177 224.0 
302.01712 403.0 
302.091736 5598.0 
302.129089 4111.0 
302.782654 127.0 
302.816406 142.0 
302.935364 297.0 
303.100677 20511.0 
303.136292 4872.0 
303.173615 1046.0 
303.97406 100.0 
304.108582 10532.0 
304.213928 213.0 
304.993317 99.0 
305.080719 15743.0 
305.114624 10063.0 
306.042511 123.0 
306.083008 3183.0 
306.118835 2246.0 
306.463501 133.0 
306.530518 249.0 
306.986725 263.0 
307.055054 582.0 
307.094452 2932.0 
308.061981 115.0 
308.105713 791.0 
308.154724 175.0 
308.462677 274.0 
309.097351 494.0 
309.896667 111.0 
310.09256 345.0 
310.131531 271.0 
311.026489 131.0 
311.102814 3153.0 
312.112915 3435.0 
312.470703 191.0 
313.120789 3990.0 
313.158997 1906.0 
314.09082 113.0 
314.131744 1750.0 
314.300659 124.0 
314.640198 104.0 
314.91687 125.0 
315.01004 218.0 
315.057495 845.0 
315.100769 15250.0 
315.173676 391.0 
315.454163 154.0 
316.042328 134.0 
316.108917 9329.0 
316.144318 4221.0 
316.572998 97.0 
316.682251 106.0 
316.954773 157.0 
316.992676 261.0 
317.116425 44444.0 
317.151978 10202.0 
317.235626 89.0 
317.733673 162.0 
317.941681 202.0 
318.122559 7621.0 
318.284546 165.0 
318.364899 105.0 
319.045807 440.0 
319.097168 7017.0 
319.188568 100.0 
319.921265 183.0 
320.057556 117.0 
320.105591 5113.0 
320.280792 112.0 
320.330872 106.0 
321.110229 16685.0 
321.776459 117.0 
322.11731 3385.0 
322.419769 253.0 
323.14212 1108.0 
323.865265 255.0 
324.15152 414.0 
324.459137 116.0 
324.954071 240.0 
325.116302 990.0 
325.153137 417.0 
325.406433 111.0 
325.752258 186.0 
326.12674 2272.0 
326.952789 203.0 
327.031525 166.0 
327.097534 2504.0 
327.139923 6807.0 
328.109619 1128.0 
328.1427 2443.0 
328.788513 138.0 
328.903778 205.0 
329.030487 150.0 
329.07959 6473.0 
329.116943 9752.0 
329.33371 81.0 
329.415558 165.0 
329.529938 199.0 
329.938782 174.0 
330.09024 3049.0 
330.123627 8254.0 
330.40683 111.0 
330.669434 154.0 
331.098083 9123.0 
331.131744 13872.0 
331.169464 12201.0 
331.389465 170.0 
331.680511 247.0 
332.103668 2660.0 
332.134613 4075.0 
332.17511 2577.0 
332.264679 327.0 
332.326172 151.0 
332.780518 114.0 
332.908325 196.0 
333.112305 19629.0 
333.656067 162.0 
333.699158 257.0 
333.803467 223.0 
334.075073 91.0 
334.118195 3816.0 
334.180756 94.0 
335.102325 449.0 
335.184814 144.0 
335.300171 173.0 
336.114777 346.0 
336.174438 342.0 
337.101562 133.0 
337.135956 165.0 
338.595856 135.0 
339.103119 1639.0 
339.725769 150.0 
339.94754 371.0 
340.112762 1612.0 
340.171661 244.0 
340.281158 201.0 
340.58313 333.0 
340.761841 146.0 
341.063385 145.0 
341.112946 1227.0 
341.151489 6435.0 
341.226349 230.0 
341.325409 272.0 
342.081848 516.0 
342.163635 1165.0 
342.394836 98.0 
342.710114 341.0 
342.984619 367.0 
343.09549 45001.0 
343.166077 1357.0 
343.517822 112.0 
343.740845 198.0 
343.858398 234.0 
344.019928 295.0 
344.062561 603.0 
344.099731 10867.0 
344.139862 4157.0 
344.306274 174.0 
344.428436 183.0 
344.783813 112.0 
344.842651 118.0 
344.956299 227.0 
345.006958 360.0 
345.112549 35581.0 
345.147766 73631.0 
345.217438 171.0 
345.303955 176.0 
345.359863 402.0 
345.473297 123.0 
345.550964 88.0 
346.021423 217.0 
346.118561 8057.0 
346.151459 11453.0 
346.271973 207.0 
346.322571 196.0 
346.565552 86.0 
346.844666 210.0 
346.910706 256.0 
347.125671 2655.0 
347.37384 87.0 
348.094238 741.0 
348.256775 397.0 
348.418335 155.0 
348.830627 163.0 
349.044312 168.0 
349.103333 3131.0 
350.115021 749.0 
351.079224 194.0 
351.13623 1693.0 
352.140503 409.0 
353.069855 192.0 
353.109955 1082.0 
353.187195 293.0 
353.647461 261.0 
354.081268 396.0 
354.121063 1478.0 
355.131226 1077.0 
355.25827 243.0 
355.962097 171.0 
356.114014 127.0 
356.492157 87.0 
356.528687 122.0 
357.005188 186.0 
357.11084 8161.0 
357.333344 121.0 
357.546875 129.0 
357.738434 144.0 
357.984589 90.0 
358.117615 7021.0 
358.417847 138.0 
358.924683 99.0 
358.968628 246.0 
359.038849 263.0 
359.065948 303.0 
359.16452 43699.0 
359.219727 329.0 
359.28418 123.0 
359.374146 169.0 
359.496277 117.0 
359.714203 169.0 
359.902527 213.0 
360.027893 171.0 
360.092804 170.0 
360.167664 6407.0 
360.297333 157.0 
360.401978 179.0 
360.648712 162.0 
361.104553 743.0 
361.139984 905.0 
361.187622 530.0 
361.437408 121.0 
361.650116 182.0 
362.143982 187.0 
362.196808 264.0 
362.689056 239.0 
362.897217 185.0 
363.123657 2697.0 
363.158508 673.0 
364.083435 158.0 
364.124939 262.0 
366.780884 96.0 
367.53476 221.0 
368.137115 236.0 
368.895447 141.0 
369.069855 217.0 
369.150604 11406.0 
369.394562 102.0 
369.486908 96.0 
369.799805 260.0 
370.157135 1785.0 
370.43399 340.0 
371.062286 222.0 
371.125275 896.0 
371.442017 182.0 
371.491028 177.0 
372.061005 184.0 
372.137207 2999.0 
373.056274 91.0 
373.160858 270.0 
374.136444 180.0 
374.67157 227.0 
375.446533 296.0 
376.62561 117.0 
377.134003 460.0 
377.174591 1286.0 
378.172333 312.0 
378.389099 208.0 
378.628326 315.0 
379.293732 265.0 
381.706085 284.0 
383.259705 195.0 
383.754211 134.0 
384.031647 90.0 
384.762817 97.0 
384.820923 126.0 
385.085999 191.0 
385.149017 116.0 
385.231873 109.0 
385.308014 231.0 
385.544189 102.0 
385.817169 176.0 
385.921265 266.0 
386.169189 542.0 
386.236725 230.0 
386.268219 243.0 
386.336334 164.0 
386.416412 146.0 
386.517578 148.0 
386.59082 227.0 
386.719604 179.0 
386.811279 586.0 
386.924103 530.0 
386.992676 768.0 
387.159302 409071.0 
387.242065 337.0 
387.288483 619.0 
387.330017 513.0 
387.462311 376.0 
387.513245 202.0 
387.568359 226.0 
387.596893 305.0 
387.90271 179.0 
387.944855 248.0 
388.019531 298.0 
388.073456 245.0 
388.162659 71272.0 
388.293365 91.0 
388.331299 187.0 
388.388977 161.0 
388.417999 164.0 
388.867065 202.0 
389.16449 1525.0 
389.96701 96.0 
390.027435 84.0 
390.143372 705.0 
390.318115 124.0 
390.350006 144.0 
390.406403 236.0 
390.461334 82.0 
390.509949 89.0 
390.576935 374.0 
390.676697 294.0 
390.777802 262.0 
390.999695 157.0 
391.681061 116.0 
391.877686 233.0 
392.094757 138.0 
392.540161 99.0 
393.777557 184.0 
395.014191 315.0 
398.216461 199.0 
398.536804 102.0 
399.017792 123.0 
400.501862 119.0 
404.602997 123.0 
404.68573 153.0 
404.732117 239.0 
404.871521 168.0 
404.911346 185.0 
404.954132 159.0 
405.009949 544.0 
405.071259 1340.0 
405.170013 257628.0 
405.28894 153.0 
405.328339 228.0 
405.465271 494.0 
405.579468 168.0 
405.701843 164.0 
405.858673 243.0 
406.034851 303.0 
406.073883 546.0 
406.173584 44551.0 
406.322205 195.0 
407.173767 554.0 
408.402069 186.0 
408.493683 181.0 
408.729462 178.0 
408.861664 85.0 
408.896942 147.0 
409.202881 187.0 
409.704193 173.0 
409.897369 105.0 
420.73642 94.0 
423.184814 578.0 
424.182098 105.0 
435.740997 134.0 
476.213409 133.0 
788.360046 84.0 
1133.272705 92.0 
1633.001587 290.0 
1776.851196 160.0 
1945.00061 282.0 
END IONS

BEGIN IONS
TITLE=Scan Number: 579
PEPMASS=565.15503
CHARGE=1+
MSLEVEL=2
FILENAME=E2_RE2_01_2936.mzXML
INSTRUMENT=ion trap
SCANS=579
SMILES=OCC1=C(O)C2=C(C=C1O[C@@H]3O[C@H](CO[C@@H]4OC[C@@H](O)[C@H](O)[C@H]4O)[C@@H](O)[C@H](O)[C@H]3O)C(=O)C5=CC=CC=C5C2=O
INCHIKEY=NVKNRXOMCYTFJF-WFLOGZPDSA-N
71.693771 195.0 
73.028191 561.0 
82.064835 185.0 
84.904381 100.0 
85.028481 348.0 
86.039787 260.0 
89.352905 204.0 
97.028191 1646.0 
98.058609 166.0 
99.04113 133.0 
100.037636 584.0 
103.719437 89.0 
105.036171 221.0 
105.876587 196.0 
109.025909 312.0 
111.044014 254.0 
112.04158 148.0 
115.039146 1593.0 
122.738388 252.0 
122.994354 118.0 
123.408035 340.0 
127.041397 207.0 
128.032959 346.0 
129.064987 234.0 
131.594452 284.0 
133.044128 152.0 
136.071655 176.0 
137.105881 144.0 
138.070404 527.0 
138.090088 1626.0 
139.096695 112.0 
140.109482 186.0 
140.859024 243.0 
141.073364 122.0 
142.504532 350.0 
143.119873 217.0 
145.052567 1073.0 
149.024414 268.0 
151.05072 400.0 
151.833725 164.0 
152.056168 156.0 
153.059799 163.0 
154.087112 1077.0 
157.629532 159.0 
158.897888 237.0 
160.2668 240.0 
161.050415 184.0 
165.071045 102.0 
165.095932 183.0 
166.085663 6988.0 
167.089905 1049.0 
168.05629 190.0 
168.103058 391.0 
168.71106 232.0 
169.063919 1452.0 
169.092148 160.0 
170.067123 205.0 
171.044739 131.0 
175.037613 120.0 
179.021851 101.0 
181.06427 187.0 
183.046341 195.0 
184.043274 158.0 
184.08905 333.0 
184.106476 363.0 
184.975082 196.0 
186.049393 172.0 
190.824875 253.0 
193.341904 206.0 
194.068359 204.0 
197.057068 1964.0 
198.052246 161.0 
198.118134 74.0 
199.038574 1042.0 
199.105118 188.0 
200.522125 238.0 
201.122131 469.0 
205.012573 149.0 
208.048965 385.0 
209.125977 155.0 
209.589401 244.0 
210.604813 273.0 
213.347168 337.0 
214.085754 166.0 
216.109558 241.0 
217.043488 105.0 
221.069229 373.0 
224.935486 221.0 
224.997284 277.0 
225.022247 749.0 
225.054199 7713.0 
226.052719 1202.0 
227.057831 99.0 
229.020874 203.0 
230.080292 166.0 
231.035217 207.0 
231.155167 168.0 
233.998169 120.0 
235.036942 3848.0 
236.052643 190.0 
237.345062 153.0 
240.623886 192.0 
241.040283 440.0 
245.043549 131.0 
247.074783 393.0 
249.063431 164.0 
251.074478 406.0 
251.289124 162.0 
251.390121 122.0 
251.48645 458.0 
251.764114 188.0 
251.887527 81.0 
252.144547 144.0 
252.426712 140.0 
252.47612 207.0 
252.529755 385.0 
252.800018 177.0 
252.831833 331.0 
252.898056 306.0 
252.969604 703.0 
253.048645 233262.0 
253.165298 311.0 
253.192047 361.0 
253.236572 152.0 
253.324112 92.0 
253.354706 177.0 
253.446899 163.0 
253.594284 126.0 
253.679352 106.0 
253.756683 96.0 
253.793686 108.0 
253.906509 407.0 
254.052628 30497.0 
254.100891 101.0 
254.191315 100.0 
254.456635 146.0 
254.979294 145.0 
255.057037 2941.0 
255.623444 286.0 
255.760193 138.0 
255.786957 130.0 
255.837509 260.0 
255.881958 274.0 
255.916 209.0 
255.968201 414.0 
256.281769 154.0 
256.509857 115.0 
257.106384 106.0 
261.052643 192.0 
263.483521 72.0 
264.067261 205.0 
264.105835 93.0 
265.048401 1073.0 
266.048737 95.0 
267.027435 164.0 
269.038483 185.0 
271.060577 2781.0 
273.035461 121.0 
275.067657 256.0 
277.002991 143.0 
277.044617 540.0 
277.08783 229.0 
279.025787 684.0 
279.059845 185.0 
279.087952 190.0 
280.327332 74.0 
281.048065 506.0 
283.058502 182.0 
283.126617 1741.0 
290.32962 179.0 
291.073029 160.0 
293.061218 470.0 
295.051178 145.0 
295.098541 117.0 
300.088287 196.0 
303.059692 754.0 
304.168701 282.0 
305.044556 150.0 
306.034424 297.0 
307.065002 174.0 
309.198669 121.0 
312.23642 296.0 
312.664886 178.0 
317.206573 147.0 
319.026764 252.0 
319.057373 556.0 
321.137024 205.0 
331.059021 3475.0 
332.076263 279.0 
336.951691 104.0 
337.035889 74.0 
337.071381 657.0 
345.867218 88.0 
349.022156 504.0 
349.069183 5322.0 
349.381561 95.0 
350.07724 1227.0 
351.071411 204.0 
354.146606 114.0 
361.071411 147.0 
366.193939 317.0 
367.080994 413.0 
370.105286 131.0 
379.094696 125.0 
385.101349 358.0 
386.097198 621.0 
415.11615 419.0 
446.680725 219.0 
451.17804 178.0 
477.204987 432.0 
483.178314 141.0 
483.244385 845.0 
498.431519 101.0 
564.219788 173.0 
565.216492 471.0 
1488.786743 240.0 
1894.693115 209.0 
END IONS

BEGIN IONS
TITLE=Scan Number: 581
PEPMASS=582.18201
CHARGE=1+
MSLEVEL=2
FILENAME=E2_RE2_01_2936.mzXML
INSTRUMENT=ion trap
SCANS=581
SMILES=OCC1=C(O)C2=C(C=C1O[C@@H]3O[C@H](CO[C@@H]4OC[C@@H](O)[C@H](O)[C@H]4O)[C@@H](O)[C@H](O)[C@H]3O)C(=O)C5=CC=CC=C5C2=O
INCHIKEY=NVKNRXOMCYTFJF-WFLOGZPDSA-N
79.342484 382.0 
84.041451 184.0 
85.026871 259.0 
86.096481 169.0 
95.045593 249.0 
97.026672 291.0 
103.073875 231.0 
105.033852 115.0 
105.369827 241.0 
115.042099 142.0 
116.04406 150.0 
116.705498 235.0 
119.05114 527.0 
121.065315 302.0 
123.0895 124.0 
126.645142 207.0 
127.037468 146.0 
128.042206 173.0 
133.052109 415.0 
135.046555 187.0 
138.085739 121.0 
141.069992 320.0 
143.063248 123.0 
145.048645 185.0 
147.046829 636.0 
157.040482 296.0 
159.423111 309.0 
166.084366 315.0 
168.10321 502.0 
169.06723 149.0 
171.044342 214.0 
175.039795 1412.0 
177.064972 184.0 
185.130142 209.0 
187.073898 209.0 
192.039963 132.0 
193.090942 198.0 
197.054855 389.0 
199.035446 358.0 
207.06369 2133.0 
208.064362 115.0 
215.052582 228.0 
225.052658 1546.0 
226.05545 574.0 
230.151047 126.0 
235.038773 641.0 
236.041733 112.0 
237.12088 154.0 
241.066986 142.0 
251.131577 88.0 
252.355362 239.0 
252.797913 441.0 
252.962143 134.0 
253.04953 61010.0 
253.180374 101.0 
254.052048 8588.0 
255.056625 266.0 
258.0448 201.0 
261.100983 172.0 
263.074615 117.0 
264.52597 117.0 
265.045013 354.0 
267.056091 253.0 
267.147644 144.0 
271.056305 1288.0 
276.065247 182.0 
277.048676 270.0 
279.061218 260.0 
283.057404 85.0 
283.130737 160.0 
317.222229 270.0 
319.057007 128.0 
326.114563 199.0 
330.246979 136.0 
331.058899 878.0 
343.095215 168.0 
349.069977 1497.0 
350.075317 328.0 
351.103119 355.0 
358.137726 313.0 
359.391388 154.0 
367.084564 134.0 
369.132599 291.0 
385.097748 465.0 
385.243866 112.0 
386.094513 137.0 
394.169952 380.0 
399.224396 248.0 
416.103394 157.0 
512.03717 232.0 
524.004761 108.0 
546.394104 109.0 
553.12323 151.0 
554.207947 137.0 
563.65509 241.0 
565.330811 145.0 
583.212708 204.0 
END IONS

BEGIN IONS
TITLE=Scan Number: 582
PEPMASS=751.33197
CHARGE=1+
MSLEVEL=2
FILENAME=E2_RE2_01_2936.mzXML
INSTRUMENT=ion trap
SCANS=582
SMILES=CCCCCC(=O)O[C@H]1C[C@@H](C)[C@@]23OC(C)(C)[C@@H]([C@H]2OC(C)=O)[C@@H](OC(=O)C4=CC=CC=C4)[C@@H](OC(C)=O)[C@]3(COC(C)=O)[C@H]1OC(=O)C5=CC=CC=C5
INCHIKEY=CUCNRHYDISBEQH-BNAQAYEJSA-N
70.372772 309.0 
72.499855 210.0 
74.695915 129.0 
77.021606 216.0 
77.038719 985.0 
77.511299 224.0 
77.888824 264.0 
81.035675 154.0 
83.050568 206.0 
86.97361 182.0 
89.091766 205.0 
90.78051 130.0 
93.071281 205.0 
95.012085 168.0 
95.048805 3680.0 
95.085899 556.0 
96.05526 168.0 
97.06076 137.0 
98.193008 244.0 
101.018402 197.0 
101.134521 168.0 
101.591316 345.0 
105.033264 74171.0 
105.069939 1152.0 
105.142509 169.0 
105.186203 110.0 
105.898361 194.0 
106.016457 880.0 
106.035362 3543.0 
106.402519 124.0 
106.666397 129.0 
106.86338 243.0 
107.082939 390.0 
107.368614 298.0 
109.066109 520.0 
111.062546 291.0 
111.848747 110.0 
115.044891 173.0 
115.077599 139.0 
117.069321 676.0 
119.0839 344.0 
121.039604 216.0 
121.059662 338.0 
122.070122 242.0 
123.080711 674.0 
123.118683 186.0 
125.629646 209.0 
128.062424 521.0 
129.0681 694.0 
131.047089 189.0 
131.087448 709.0 
132.084351 100.0 
133.06395 135.0 
133.100754 535.0 
133.308899 312.0 
135.047562 363.0 
135.082108 281.0 
136.085327 239.0 
137.058929 404.0 
137.094315 450.0 
137.131668 153.0 
140.07782 168.0 
141.071152 457.0 
142.07756 153.0 
143.085587 2999.0 
144.087357 137.0 
145.04689 201.0 
145.066193 440.0 
145.102966 899.0 
145.312683 121.0 
146.066772 466.0 
146.591751 206.0 
147.046112 283.0 
147.078476 1711.0 
148.080933 111.0 
149.040894 210.0 
149.065216 485.0 
149.097534 997.0 
150.091354 155.0 
151.075073 790.0 
153.070038 257.0 
153.399246 90.0 
154.059784 133.0 
154.078598 188.0 
155.083527 1873.0 
156.071701 211.0 
156.091034 221.0 
157.101639 1063.0 
158.069901 166.0 
158.107605 143.0 
159.079742 2917.0 
159.115799 1252.0 
160.083221 377.0 
160.118179 246.0 
161.060318 466.0 
161.093964 3426.0 
162.099731 311.0 
163.074783 362.0 
166.077057 173.0 
168.095596 1428.0 
169.097809 1400.0 
170.080978 225.0 
170.104187 190.0 
170.985306 216.0 
171.020416 249.0 
171.079681 1860.0 
171.115234 375.0 
172.08316 459.0 
172.111786 119.0 
173.057373 502.0 
173.094086 1148.0 
173.132126 960.0 
174.068802 265.0 
174.138062 362.0 
175.070755 656.0 
176.035843 96.0 
176.08078 101.0 
177.04567 133.0 
177.089325 2313.0 
177.127716 966.0 
178.090729 173.0 
178.133881 147.0 
180.11409 151.0 
181.08313 464.0 
183.081879 278.0 
183.115906 4436.0 
184.110275 373.0 
185.093277 1433.0 
185.129318 113.0 
186.101273 820.0 
187.076385 1029.0 
187.110626 3009.0 
188.073105 287.0 
188.11319 508.0 
189.05835 271.0 
189.090836 5611.0 
189.496979 102.0 
189.645523 93.0 
190.092133 298.0 
191.077209 388.0 
191.144653 850.0 
193.101395 566.0 
196.084457 663.0 
199.113403 4196.0 
200.112411 584.0 
201.127823 10430.0 
202.092575 167.0 
202.132294 1235.0 
204.946747 323.0 
205.088104 587.0 
205.122025 838.0 
205.183914 196.0 
206.089859 134.0 
206.12471 190.0 
207.101898 748.0 
207.13501 444.0 
207.659012 322.0 
208.096512 199.0 
208.262192 90.0 
209.096222 570.0 
209.692627 112.0 
210.105865 114.0 
211.07106 278.0 
211.111267 7354.0 
212.118652 677.0 
213.089737 317.0 
213.119965 90.0 
213.877136 82.0 
214.097641 219.0 
214.611832 95.0 
215.088989 352.0 
216.112717 557.0 
217.081741 170.0 
217.120132 4407.0 
218.123581 891.0 
219.09166 305.0 
219.136368 3876.0 
220.11731 159.0 
220.143433 287.0 
220.876968 90.0 
221.094467 170.0 
221.695587 159.0 
225.122894 140.0 
225.873489 253.0 
226.127182 113.0 
229.122009 17786.0 
229.244537 152.0 
229.432404 88.0 
230.124573 2854.0 
230.285583 155.0 
231.101471 2030.0 
231.128632 532.0 
232.102432 334.0 
233.114563 175.0 
233.154709 105.0 
235.101151 229.0 
235.133224 867.0 
236.08815 160.0 
237.118393 192.0 
237.827042 91.0 
238.085739 176.0 
239.110672 300.0 
241.117996 431.0 
242.15065 170.0 
242.998413 317.0 
243.085922 234.0 
243.135696 1434.0 
244.145737 125.0 
247.036041 208.0 
247.076141 138.0 
247.13327 9327.0 
247.246964 148.0 
248.138885 1377.0 
249.085159 241.0 
249.106735 596.0 
249.142822 173.0 
250.046463 199.0 
250.114517 241.0 
253.116776 1073.0 
254.126099 144.0 
259.087219 165.0 
259.131683 1634.0 
260.079529 82.0 
261.150635 496.0 
263.115997 457.0 
264.108643 233.0 
265.137207 647.0 
266.14978 113.0 
271.132843 2608.0 
272.132935 572.0 
273.116455 177.0 
273.967133 158.0 
277.09668 221.0 
277.142792 1140.0 
278.149567 109.0 
281.124054 228.0 
284.029144 231.0 
289.143677 6071.0 
290.148438 993.0 
291.122894 168.0 
293.079773 130.0 
293.18396 117.0 
294.128082 208.0 
295.154297 3234.0 
296.164215 643.0 
297.153473 96.0 
299.199249 121.0 
300.600922 266.0 
303.135223 411.0 
304.139587 136.0 
305.155029 452.0 
307.091125 203.0 
307.156403 3580.0 
307.267609 86.0 
308.106598 119.0 
308.150238 421.0 
308.561829 186.0 
310.638794 280.0 
311.126709 461.0 
314.692963 190.0 
315.136078 145.0 
321.152405 370.0 
322.145721 163.0 
323.177124 131.0 
327.197266 303.0 
331.152588 1889.0 
332.164642 88.0 
333.148926 1476.0 
334.145386 416.0 
335.117554 120.0 
337.164032 356.0 
339.155334 394.0 
345.210419 546.0 
349.169189 1453.0 
350.172058 126.0 
351.156952 1150.0 
352.177307 223.0 
358.201752 173.0 
363.117126 93.0 
367.172852 4258.0 
368.184387 133.0 
369.170532 800.0 
370.176392 117.0 
375.156342 502.0 
376.154297 202.0 
378.797211 87.0 
391.177032 131.0 
392.17337 196.0 
393.181274 191.0 
398.155701 176.0 
399.18576 367.0 
405.225433 786.0 
406.213715 85.0 
407.199341 189.0 
407.925171 189.0 
409.17923 244.0 
411.177551 2078.0 
412.127625 149.0 
412.185455 381.0 
413.304749 127.0 
423.175934 145.0 
429.201141 339.0 
441.184235 109.0 
453.183655 289.0 
453.849152 125.0 
465.250671 237.0 
470.164917 162.0 
470.559326 125.0 
471.197754 3221.0 
472.203064 606.0 
472.493164 152.0 
473.176575 229.0 
475.20578 149.0 
487.181274 151.0 
513.217041 622.0 
527.265991 190.0 
531.225708 138.0 
532.220032 106.0 
533.203064 168.0 
636.230103 162.0 
638.34729 114.0 
691.317444 500.0 
692.451233 104.0 
693.424255 200.0 
750.486145 416.0 
751.514038 184.0 
1586.592407 164.0 
1779.338745 174.0 
END IONS

BEGIN IONS
TITLE=Scan Number: 583
PEPMASS=768.35901
CHARGE=1+
MSLEVEL=2
FILENAME=E2_RE2_01_2936.mzXML
INSTRUMENT=ion trap
SCANS=583
SMILES=CCCCCC(=O)O[C@H]1C[C@@H](C)[C@@]23OC(C)(C)[C@@H]([C@H]2OC(C)=O)[C@@H](OC(=O)C4=CC=CC=C4)[C@@H](OC(C)=O)[C@]3(COC(C)=O)[C@H]1OC(=O)C5=CC=CC=C5
INCHIKEY=CUCNRHYDISBEQH-BNAQAYEJSA-N
71.087502 458.0 
75.132538 250.0 
77.038513 397.0 
80.324921 279.0 
81.071991 280.0 
83.046638 246.0 
91.053131 152.0 
93.072052 136.0 
94.326454 99.0 
95.050049 855.0 
95.08316 146.0 
97.056 174.0 
97.244949 163.0 
99.045975 300.0 
99.08197 359.0 
99.75692 297.0 
101.021523 225.0 
104.486778 212.0 
104.999664 520.0 
105.033386 61916.0 
105.068596 741.0 
105.090065 156.0 
105.113976 422.0 
105.861366 197.0 
106.036461 4206.0 
106.315033 220.0 
106.965477 104.0 
107.041855 272.0 
109.069588 672.0 
110.057579 153.0 
111.042343 163.0 
111.080353 181.0 
117.306984 178.0 
117.829796 306.0 
119.084618 630.0 
119.582443 193.0 
120.317413 169.0 
121.051109 211.0 
123.078743 601.0 
128.06543 235.0 
129.070862 371.0 
131.062454 188.0 
131.084244 2050.0 
131.134018 144.0 
132.086456 104.0 
133.10112 374.0 
133.228287 331.0 
134.064331 134.0 
134.092194 156.0 
135.044098 141.0 
135.077133 467.0 
136.085876 177.0 
136.267288 232.0 
137.056717 395.0 
137.096573 219.0 
141.064743 351.0 
142.075134 724.0 
143.085968 3352.0 
144.086746 364.0 
145.063782 520.0 
145.101349 299.0 
146.107788 218.0 
147.081009 1469.0 
147.113419 129.0 
149.059937 257.0 
149.091721 365.0 
149.818405 192.0 
151.077606 345.0 
152.076309 150.0 
153.072464 165.0 
155.083496 1871.0 
155.884689 126.0 
156.073685 256.0 
157.068146 165.0 
157.101089 575.0 
158.069962 207.0 
158.102203 134.0 
159.079315 2876.0 
159.113617 355.0 
159.346634 152.0 
160.071182 176.0 
161.056732 256.0 
161.094513 1892.0 
162.093613 179.0 
163.0728 146.0 
163.113724 126.0 
167.07457 327.0 
168.097626 669.0 
169.062042 181.0 
169.099625 816.0 
171.081268 2170.0 
171.120834 766.0 
171.167358 83.0 
172.085266 665.0 
172.12204 638.0 
173.098663 1000.0 
173.132263 496.0 
174.098923 257.0 
174.13385 662.0 
175.077545 451.0 
175.111053 174.0 
177.093369 2181.0 
178.045624 239.0 
178.098114 159.0 
180.530121 101.0 
181.064529 250.0 
183.085495 331.0 
183.116806 4670.0 
184.118347 199.0 
185.100204 660.0 
186.104355 512.0 
187.039124 251.0 
187.071854 417.0 
187.11116 2441.0 
188.118149 386.0 
189.088486 4845.0 
189.126862 412.0 
190.087219 207.0 
190.113586 159.0 
191.073685 202.0 
191.140015 205.0 
191.438766 160.0 
192.080566 167.0 
193.0914 271.0 
193.114243 382.0 
194.959045 100.0 
195.098022 147.0 
196.086685 447.0 
197.07634 348.0 
198.10675 122.0 
199.10907 2191.0 
200.113052 511.0 
201.00177 225.0 
201.127869 5666.0 
202.130341 1117.0 
203.144592 391.0 
205.090057 537.0 
205.119583 660.0 
207.10022 306.0 
207.258636 249.0 
211.11087 4917.0 
212.115952 611.0 
213.0905 394.0 
216.110535 371.0 
217.086227 188.0 
217.121292 3886.0 
218.128784 509.0 
219.138962 2816.0 
220.145691 323.0 
225.090393 110.0 
225.121582 159.0 
225.149002 134.0 
227.075439 210.0 
228.361115 102.0 
228.563782 136.0 
229.065186 271.0 
229.122116 15243.0 
230.122604 1971.0 
231.100052 1452.0 
231.138351 276.0 
235.131332 313.0 
235.175079 219.0 
237.15596 137.0 
239.106506 89.0 
241.137909 164.0 
242.075607 148.0 
243.10321 493.0 
243.137482 464.0 
244.131393 135.0 
247.132355 8151.0 
248.134735 1779.0 
249.110504 1042.0 
250.112778 166.0 
251.065002 117.0 
251.152542 262.0 
253.092438 189.0 
253.124802 277.0 
254.137131 100.0 
259.132629 2118.0 
261.14032 251.0 
262.149536 186.0 
262.193268 184.0 
263.10907 620.0 
264.105164 215.0 
265.142151 688.0 
266.174164 108.0 
267.14624 334.0 
267.925232 267.0 
269.072937 198.0 
271.132935 3317.0 
273.147095 184.0 
274.085205 179.0 
274.122986 157.0 
274.156464 152.0 
276.105682 188.0 
276.653992 95.0 
277.139923 1013.0 
278.024811 202.0 
278.161224 107.0 
279.10611 284.0 
282.09433 125.0 
283.130371 144.0 
287.106079 110.0 
287.139984 259.0 
287.445282 122.0 
287.591431 122.0 
289.144684 7234.0 
290.138306 340.0 
291.071594 148.0 
291.108063 623.0 
293.12738 152.0 
295.106628 165.0 
295.150391 1386.0 
296.136047 122.0 
296.164398 151.0 
301.921997 268.0 
303.13446 157.0 
304.136749 274.0 
305.1604 388.0 
307.153687 2513.0 
308.155853 536.0 
309.161469 315.0 
311.100525 138.0 
313.138031 524.0 
314.152161 227.0 
315.145996 184.0 
317.206055 141.0 
318.178406 201.0 
319.149445 162.0 
321.142609 138.0 
322.148956 174.0 
327.175964 81.0 
328.123871 115.0 
328.190643 105.0 
331.155029 2326.0 
332.158173 464.0 
333.149658 1080.0 
334.15094 330.0 
334.28595 105.0 
337.16571 327.0 
345.169464 92.0 
345.206635 285.0 
347.071106 103.0 
349.166412 946.0 
351.161224 1315.0 
352.168396 686.0 
352.21283 138.0 
355.087158 133.0 
356.220886 190.0 
359.205719 97.0 
363.163086 117.0 
363.225983 286.0 
366.055725 292.0 
367.172455 2473.0 
368.173706 572.0 
369.169373 654.0 
370.165405 116.0 
375.160492 440.0 
376.161835 540.0 
391.167053 128.0 
391.201019 111.0 
392.122009 295.0 
393.166504 438.0 
395.143555 120.0 
397.525543 179.0 
405.21579 172.0 
406.224884 445.0 
409.175964 318.0 
410.196014 136.0 
411.18042 1664.0 
411.609253 86.0 
412.184631 263.0 
417.166168 136.0 
423.242615 287.0 
429.187988 476.0 
439.252106 135.0 
451.214996 115.0 
453.197571 647.0 
465.243042 800.0 
471.201111 4246.0 
472.162354 144.0 
472.207397 356.0 
473.202026 120.0 
489.206055 138.0 
490.192566 148.0 
507.273682 137.0 
513.206543 294.0 
513.345093 200.0 
514.219666 124.0 
518.388428 88.0 
527.255981 88.0 
531.22821 779.0 
532.220276 257.0 
533.232544 106.0 
538.283752 147.0 
543.282898 178.0 
543.352295 179.0 
575.222229 386.0 
587.302917 151.0 
593.256287 143.0 
629.308044 271.0 
631.312378 248.0 
635.250366 683.0 
636.251465 122.0 
650.300171 201.0 
691.330322 362.0 
692.305054 401.0 
767.565613 214.0 
768.287354 152.0 
769.488281 91.0 
786.494019 115.0 
851.497437 85.0 
1079.347412 263.0 
1612.887085 258.0 
1715.37439 249.0 
1772.89563 211.0 
1881.359497 256.0 
END IONS

BEGIN IONS
TITLE=Scan Number: 585
PEPMASS=321.09698
CHARGE=1+
MSLEVEL=2
FILENAME=G12_RG12_01_2958.mzXML
INSTRUMENT=ion trap
SCANS=585
SMILES=COC1=CC(CO)=C(OC2=C(C(O)=O)C(O)=CC(C)=C2)C(O)=C1
INCHIKEY=ULPVIBVOKQAXJB-UHFFFAOYSA-N
79.143448 272.0 
80.013283 164.0 
80.124817 290.0 
85.00489 152.0 
85.026199 141.0 
85.162025 150.0 
91.057449 185.0 
93.154182 269.0 
95.050438 366.0 
96.053154 171.0 
99.042236 699.0 
103.047104 145.0 
105.034698 419.0 
106.039925 171.0 
114.04232 157.0 
114.460289 222.0 
115.054489 1388.0 
116.008896 233.0 
116.05957 324.0 
117.06778 567.0 
118.216896 147.0 
119.049095 774.0 
121.029533 223.0 
121.069321 285.0 
122.035736 212.0 
123.03154 197.0 
123.044487 248.0 
125.059181 193.0 
128.063019 999.0 
129.025604 112.0 
129.068588 1483.0 
130.038315 192.0 
130.078186 1118.0 
131.046326 552.0 
131.088318 163.0 
132.050171 373.0 
133.062912 443.0 
133.458572 286.0 
134.034561 547.0 
135.021286 128.0 
135.044846 93.0 
135.253952 255.0 
137.060944 136.0 
139.044968 134.0 
140.061203 2179.0 
140.973831 111.0 
141.069962 4220.0 
142.040436 150.0 
142.080429 771.0 
143.050552 792.0 
143.085388 660.0 
144.056427 1468.0 
144.087219 81.0 
145.06485 1512.0 
146.042465 284.0 
146.07283 545.0 
147.045242 227.0 
147.074982 176.0 
148.052307 145.0 
149.049133 95.0 
151.0298 245.0 
152.024094 173.0 
152.060104 1002.0 
152.990204 120.0 
153.047012 123.0 
153.069016 2144.0 
154.077805 158.0 
154.945847 114.0 
155.058716 972.0 
155.16188 144.0 
155.471329 131.0 
156.052109 580.0 
156.09758 279.0 
157.030212 180.0 
157.063568 773.0 
157.102936 135.0 
157.441406 212.0 
158.07103 5134.0 
159.037674 392.0 
159.079651 702.0 
160.051224 957.0 
160.08316 163.0 
160.107025 127.0 
160.685974 105.0 
161.058212 901.0 
161.095657 305.0 
162.06514 151.0 
163.023956 230.0 
164.049423 194.0 
165.094238 181.0 
166.073547 144.0 
168.056717 5335.0 
169.063614 7966.0 
169.47438 194.0 
170.045761 315.0 
170.071396 3448.0 
171.022079 322.0 
171.045685 1025.0 
171.078491 524.0 
172.013306 113.0 
172.04985 901.0 
172.084351 283.0 
173.06012 904.0 
173.096695 613.0 
174.028427 433.0 
174.06813 1287.0 
174.101318 233.0 
175.037308 148.0 
175.0746 1439.0 
176.041977 77.0 
176.074005 143.0 
177.025482 402.0 
177.052948 661.0 
178.058807 262.0 
179.013214 134.0 
179.049057 848.0 
180.057648 661.0 
181.060211 872.0 
182.069992 425.0 
183.020935 197.0 
183.046448 215.0 
183.079208 2786.0 
183.529587 161.0 
184.048828 1343.0 
184.086853 424.0 
185.057739 2472.0 
185.111786 227.0 
186.040833 344.0 
186.067322 6495.0 
187.039413 419.0 
187.071915 863.0 
188.052322 270.0 
189.055283 750.0 
189.093185 370.0 
189.48526 156.0 
190.097061 202.0 
190.422913 176.0 
190.53447 231.0 
191.035919 215.0 
191.587875 78.0 
195.076523 119.0 
196.018188 288.0 
196.051193 1199.0 
196.988159 308.0 
197.05983 3795.0 
198.066742 5577.0 
199.043076 1028.0 
199.07193 983.0 
199.759811 399.0 
200.043686 334.0 
200.850784 219.0 
201.028656 168.0 
201.058411 444.0 
201.087967 1343.0 
202.064301 405.0 
203.044861 210.0 
203.066193 380.0 
208.05603 387.0 
209.051712 175.0 
211.040207 291.0 
211.075867 3217.0 
212.084122 672.0 
212.621338 320.0 
213.060165 875.0 
213.09166 3367.0 
214.061493 6888.0 
214.097763 153.0 
214.732101 89.0 
215.070297 1835.0 
216.041275 163.0 
216.082153 326.0 
217.04425 1459.0 
217.086288 2170.0 
218.0914 192.0 
219.186554 117.0 
222.030838 322.0 
224.045395 933.0 
225.05452 1792.0 
226.035751 217.0 
226.063019 1971.0 
227.065231 827.0 
228.066162 298.0 
229.035446 165.0 
229.085999 13576.0 
229.25621 87.0 
230.05513 1666.0 
230.086746 1753.0 
231.063705 2414.0 
232.070938 310.0 
235.042053 274.0 
236.752029 131.0 
237.05571 347.0 
239.068802 1778.0 
240.032715 171.0 
240.077164 241.0 
241.045837 177.0 
241.084412 2885.0 
242.055161 1385.0 
242.08757 808.0 
243.040146 138.0 
243.066193 667.0 
244.065216 250.0 
249.226761 282.0 
253.043732 196.0 
254.057724 788.0 
255.029495 249.0 
255.058182 546.0 
256.023315 359.0 
256.073669 175.0 
257.080414 11524.0 
257.916687 133.0 
257.992432 108.0 
258.050751 604.0 
258.08017 1323.0 
258.785736 118.0 
259.100006 2942.0 
259.488953 106.0 
267.062714 1581.0 
268.067871 238.0 
269.035187 153.0 
270.044128 372.0 
271.052795 505.0 
271.725647 211.0 
272.08374 167.0 
273.077179 7242.0 
274.075897 733.0 
275.091034 151.0 
285.075897 26580.0 
285.141144 293.0 
285.709991 110.0 
286.079224 2096.0 
286.14563 87.0 
288.064667 102.0 
293.027435 155.0 
302.527496 109.0 
303.086334 17714.0 
303.596619 124.0 
304.087067 1396.0 
320.049866 116.0 
321.598022 90.0 
322.033691 244.0 
328.999115 183.0 
350.0383 141.0 
365.026184 177.0 
366.048645 154.0 
407.054779 126.0 
425.057861 174.0 
444.080658 205.0 
1966.065674 133.0 
END IONS

BEGIN IONS
TITLE=Scan Number: 587
PEPMASS=337.10699
CHARGE=1+
MSLEVEL=2
FILENAME=G12_RG12_01_2958.mzXML
INSTRUMENT=ion trap
SCANS=587
SMILES=COC1=C2C(=O)C3=CC=C4CC(C)(O)CC(=O)C4=C3C(=O)C2=CC=C1
INCHIKEY=XZLGWJORNHETKI-UHFFFAOYSA-N
71.731056 129.0 
72.321098 160.0 
74.667999 283.0 
76.314148 174.0 
78.084015 121.0 
78.53373 228.0 
79.022064 357.0 
81.668541 169.0 
82.790565 132.0 
86.542206 291.0 
86.655373 277.0 
86.887383 270.0 
89.038406 776.0 
90.934624 310.0 
90.967499 292.0 
91.051682 160.0 
94.619423 211.0 
95.04866 283.0 
100.226913 109.0 
101.680557 117.0 
101.948616 84.0 
103.050957 172.0 
104.024063 149.0 
104.325172 116.0 
105.037338 1276.0 
105.069138 414.0 
105.223816 105.0 
106.074883 158.0 
106.430931 275.0 
107.622902 310.0 
107.665237 128.0 
108.11795 130.0 
108.211388 185.0 
110.235413 181.0 
110.498337 263.0 
110.851326 241.0 
111.044144 187.0 
115.053795 932.0 
116.051781 175.0 
118.040138 293.0 
118.170059 177.0 
119.010147 539.0 
119.048187 220.0 
119.069984 157.0 
119.179031 310.0 
119.437958 149.0 
120.015579 630.0 
121.027802 846.0 
121.060974 132.0 
121.454933 322.0 
123.807457 176.0 
126.545723 284.0 
127.05291 232.0 
128.025894 224.0 
128.061951 1415.0 
128.793213 152.0 
129.070007 1055.0 
129.110382 308.0 
130.430191 184.0 
131.01503 135.0 
131.046204 162.0 
132.018341 158.0 
132.308701 246.0 
133.027847 2888.0 
134.036606 411.0 
134.648575 158.0 
135.044846 3134.0 
136.040802 178.0 
136.594116 217.0 
137.484238 297.0 
141.067642 1943.0 
141.187881 164.0 
141.548538 358.0 
142.043289 178.0 
143.050034 618.0 
143.085205 307.0 
144.049759 140.0 
145.019974 129.0 
145.059464 348.0 
145.296814 82.0 
146.072815 152.0 
147.042435 323.0 
148.059586 228.0 
148.885269 120.0 
149.026047 248.0 
150.046768 134.0 
151.049255 161.0 
152.010498 135.0 
152.059875 1279.0 
152.854309 137.0 
152.949677 191.0 
153.070435 612.0 
154.0392 444.0 
154.078049 532.0 
155.053024 2554.0 
156.053436 893.0 
157.027344 212.0 
157.065002 921.0 
158.071487 246.0 
159.03772 119.0 
159.115585 125.0 
160.049301 124.0 
160.197174 201.0 
160.448364 365.0 
160.499908 111.0 
160.544418 109.0 
160.99852 106.0 
161.022369 2064.0 
163.036972 1291.0 
164.035934 207.0 
164.063782 527.0 
165.028412 62.0 
165.068192 2638.0 
165.308884 201.0 
165.865036 269.0 
166.07489 809.0 
167.053543 523.0 
167.086609 1001.0 
167.123093 77.0 
167.780701 198.0 
169.033127 218.0 
169.061615 459.0 
169.234451 111.0 
169.671173 66.0 
170.029495 183.0 
170.224228 244.0 
170.435577 179.0 
171.014343 150.0 
171.078644 1351.0 
172.051636 267.0 
172.66864 137.0 
173.058472 79.0 
173.113281 208.0 
174.498795 71.0 
175.166275 206.0 
175.506348 120.0 
176.060379 382.0 
176.115646 77.0 
176.288773 85.0 
176.318909 136.0 
177.070831 764.0 
177.163315 300.0 
178.046036 201.0 
178.076096 4532.0 
178.366547 65.0 
178.55455 119.0 
178.65416 213.0 
179.033768 803.0 
179.08313 1719.0 
180.055496 854.0 
181.062424 1322.0 
181.847992 235.0 
182.070648 2779.0 
182.368408 440.0 
183.04718 458.0 
183.076248 180.0 
184.046005 280.0 
184.45993 65.0 
185.061798 1437.0 
185.731995 279.0 
186.191284 152.0 
187.034241 115.0 
187.200851 108.0 
187.232178 197.0 
187.445038 192.0 
188.066833 469.0 
188.58107 256.0 
189.068207 3134.0 
190.042526 187.0 
190.075119 3130.0 
191.037048 374.0 
191.084763 6340.0 
192.092453 2274.0 
192.428177 149.0 
192.448837 194.0 
193.066254 3730.0 
194.045776 246.0 
194.07106 2049.0 
194.268936 350.0 
195.032043 349.0 
195.079086 1432.0 
196.082047 319.0 
196.826172 211.0 
197.057373 317.0 
197.089096 278.0 
199.076721 176.0 
200.06218 142.0 
201.01355 118.0 
201.068008 1343.0 
201.449234 160.0 
201.999695 128.0 
202.033371 363.0 
202.076874 22118.0 
202.201935 220.0 
202.268967 269.0 
202.450577 240.0 
203.028671 141.0 
203.084717 11848.0 
204.057449 696.0 
204.090408 2769.0 
204.687683 57.0 
205.036423 249.0 
205.064835 6123.0 
205.098541 1700.0 
205.158035 314.0 
205.349991 245.0 
206.034958 303.0 
206.07193 3229.0 
206.1064 641.0 
206.790482 73.0 
207.051086 406.0 
207.080063 3900.0 
207.117416 565.0 
207.279221 138.0 
208.051331 2129.0 
208.085419 945.0 
208.991867 122.0 
209.059631 5319.0 
209.097961 153.0 
210.063522 1686.0 
211.049713 396.0 
211.075058 547.0 
212.081909 89.0 
213.057877 125.0 
214.074356 952.0 
215.014511 267.0 
215.083511 11326.0 
216.053497 269.0 
216.089035 4775.0 
217.029648 203.0 
217.061005 1057.0 
217.098755 5807.0 
217.313095 234.0 
218.071121 4816.0 
218.102005 810.0 
219.018448 373.0 
219.080231 14181.0 
219.112564 817.0 
219.844543 158.0 
220.048203 523.0 
220.088379 7034.0 
220.370438 59.0 
220.611115 89.0 
221.058777 4114.0 
221.09584 6162.0 
221.601532 138.0 
222.036392 286.0 
222.068634 2107.0 
222.100189 1597.0 
223.036545 456.0 
223.075668 3251.0 
223.676773 118.0 
224.028564 76.0 
224.082413 1257.0 
225.048706 443.0 
225.091629 934.0 
225.998734 130.0 
226.076294 3658.0 
227.033737 117.0 
227.082245 2801.0 
227.215271 144.0 
227.662842 217.0 
228.092285 3086.0 
229.052292 911.0 
229.076752 2046.0 
229.10025 3472.0 
230.072144 9102.0 
230.185822 151.0 
230.927353 128.0 
231.042786 832.0 
231.079407 18683.0 
231.184647 374.0 
231.293854 56.0 
231.657166 101.0 
231.945663 86.0 
232.084885 6478.0 
232.750763 167.0 
232.886108 384.0 
232.992569 131.0 
233.059052 6591.0 
233.092316 4966.0 
234.065994 7528.0 
234.099426 1013.0 
235.041046 616.0 
235.076523 5062.0 
235.111069 1294.0 
236.046661 6534.0 
236.083099 1236.0 
236.11171 329.0 
236.368515 218.0 
236.972687 267.0 
237.054138 8110.0 
237.41011 314.0 
237.545761 333.0 
238.06192 14762.0 
238.109741 462.0 
238.162979 132.0 
238.80899 147.0 
239.007874 104.0 
239.071564 1896.0 
239.312332 119.0 
240.038818 154.0 
240.12973 144.0 
240.688995 159.0 
241.042114 153.0 
242.07515 620.0 
243.081207 4119.0 
244.083664 4631.0 
244.19368 248.0 
244.300491 258.0 
244.993362 117.0 
245.059052 3230.0 
245.095184 12017.0 
245.781891 193.0 
246.065964 6596.0 
246.098404 3759.0 
246.242462 177.0 
246.320267 112.0 
247.075729 29698.0 
247.226654 77.0 
248.080688 18758.0 
249.055115 3795.0 
249.090103 11119.0 
249.498398 126.0 
249.616852 68.0 
249.818054 159.0 
250.061844 1125.0 
250.092346 965.0 
251.035614 217.0 
251.070007 2394.0 
252.077057 8233.0 
252.252884 252.0 
252.490997 207.0 
253.001129 126.0 
253.046432 603.0 
253.085129 22734.0 
253.167267 124.0 
254.088608 2871.0 
254.924728 110.0 
255.026871 81.0 
255.079147 3600.0 
255.1474 87.0 
255.219772 56.0 
255.529297 92.0 
256.052002 156.0 
256.085114 1371.0 
257.068695 1408.0 
257.098633 1933.0 
257.752258 173.0 
258.066956 13417.0 
258.203888 88.0 
259.074188 23649.0 
259.679443 71.0 
259.898773 302.0 
260.080811 5949.0 
261.020081 227.0 
261.05307 4990.0 
261.089569 10592.0 
261.538422 126.0 
261.700867 205.0 
261.802643 177.0 
261.853638 256.0 
261.983459 109.0 
262.062256 6386.0 
262.096313 5527.0 
262.226166 138.0 
262.707062 139.0 
263.003967 250.0 
263.067474 3920.0 
263.105347 8401.0 
263.837341 101.0 
264.039917 4854.0 
264.108429 785.0 
264.737549 74.0 
265.047058 2435.0 
265.089203 778.0 
265.662445 159.0 
266.050476 477.0 
266.074188 459.0 
267.068604 138.0 
267.095123 238.0 
268.039703 617.0 
269.05423 183.0 
270.039825 110.0 
270.067657 316.0 
270.209717 83.0 
271.075073 2781.0 
271.170044 143.0 
272.081238 2204.0 
272.672516 138.0 
272.822815 102.0 
272.933014 143.0 
273.090637 18517.0 
273.774658 209.0 
274.095581 9987.0 
275.070129 16490.0 
275.104126 1868.0 
275.228394 103.0 
275.44223 259.0 
275.510101 97.0 
275.873566 168.0 
276.01651 201.0 
276.077179 33210.0 
276.182129 143.0 
276.391937 93.0 
277.082977 16575.0 
277.239685 81.0 
278.05899 472.0 
278.089996 1969.0 
278.372803 289.0 
278.74054 68.0 
279.064087 2435.0 
279.993774 225.0 
280.073547 2103.0 
280.181763 170.0 
280.522278 73.0 
280.648956 83.0 
280.907532 113.0 
281.076233 288.0 
281.307495 95.0 
282.065979 182.0 
283.016022 147.0 
283.075317 1303.0 
284.081055 546.0 
285.048035 253.0 
285.089661 325.0 
285.8909 110.0 
285.929596 207.0 
286.063812 1243.0 
286.797424 95.0 
287.002502 130.0 
287.068085 2624.0 
287.335052 84.0 
287.844025 62.0 
288.076447 146.0 
288.883911 118.0 
288.976868 186.0 
289.012024 274.0 
289.048126 1152.0 
289.084015 3645.0 
289.552399 110.0 
289.688751 222.0 
289.765381 120.0 
290.092041 9503.0 
290.201477 174.0 
290.412018 162.0 
290.677887 176.0 
290.722412 238.0 
290.928864 118.0 
291.101318 56351.0 
291.31131 80.0 
291.497833 148.0 
291.762573 154.0 
292.003754 130.0 
292.029419 176.0 
292.104279 6989.0 
293.028046 252.0 
293.081696 684.0 
293.116882 236.0 
294.121643 174.0 
294.156281 201.0 
294.734802 432.0 
294.877838 318.0 
295.013123 105.0 
295.096497 53890.0 
295.330414 137.0 
295.450348 298.0 
295.477325 200.0 
295.83017 176.0 
296.099976 7688.0 
297.093384 227.0 
298.987 101.0 
299.067261 414.0 
300.070099 790.0 
300.999725 214.0 
301.084808 12399.0 
301.509735 211.0 
301.533264 241.0 
301.67038 156.0 
302.005951 191.0 
302.049255 425.0 
302.092255 6206.0 
302.623077 238.0 
303.065674 1733.0 
303.092102 1102.0 
303.543549 183.0 
303.683563 119.0 
304.023224 175.0 
304.073273 6496.0 
304.207581 66.0 
304.250549 123.0 
305.067108 220.0 
305.096283 152.0 
305.278168 182.0 
306.082489 332.0 
306.494202 91.0 
306.871613 64.0 
307.103149 172.0 
307.331726 67.0 
307.356506 176.0 
307.561127 127.0 
308.085663 130.0 
309.107452 186.0 
310.180389 120.0 
313.11142 704.0 
316.126923 90.0 
317.325745 85.0 
317.879395 74.0 
317.99057 133.0 
318.087158 592.0 
318.293579 225.0 
318.425507 67.0 
318.836487 223.0 
318.955078 499.0 
319.096466 196431.0 
319.165344 273.0 
319.218689 151.0 
319.455811 166.0 
319.600952 231.0 
319.631683 277.0 
319.740356 172.0 
320.028717 635.0 
320.099426 27159.0 
320.226959 197.0 
320.58194 76.0 
320.849976 79.0 
321.081482 272.0 
322.083069 168.0 
322.29126 177.0 
322.400665 160.0 
322.713135 89.0 
322.99057 145.0 
324.099792 230.0 
331.894989 67.0 
334.071289 155.0 
336.897156 139.0 
337.026245 475.0 
337.107208 40782.0 
337.7052 151.0 
337.792542 180.0 
337.971985 268.0 
338.067596 165.0 
338.110931 3807.0 
340.34436 95.0 
340.435333 136.0 
340.461578 229.0 
347.578857 161.0 
375.465393 111.0 
457.679626 67.0 
753.491333 331.0 
1060.770386 119.0 
1608.218506 246.0 
1718.140015 133.0 
END IONS

BEGIN IONS
TITLE=Scan Number: 589
PEPMASS=489.21201
CHARGE=1+
MSLEVEL=2
FILENAME=G12_RG12_01_2958.mzXML
INSTRUMENT=ion trap
SCANS=589
SMILES=COC1=C2CC3C(C)(CC4(O)OCC5(C)OC6(CCC3(C)C45O6)OC)OC2=C(C)C7=C1C(=O)OC7
INCHIKEY=UEVWVMGTABEFID-UHFFFAOYSA-N
70.27552 175.0 
73.064545 174.0 
79.051865 242.0 
80.477722 224.0 
81.032097 180.0 
82.979073 112.0 
83.325775 180.0 
84.144753 130.0 
91.053474 239.0 
95.089256 151.0 
99.816864 496.0 
101.769386 81.0 
103.052261 174.0 
105.042343 189.0 
105.069984 963.0 
107.049545 156.0 
107.085373 1186.0 
108.090492 190.0 
109.064743 355.0 
111.041664 188.0 
111.08107 92.0 
115.048676 193.0 
119.067009 237.0 
119.088303 597.0 
121.064392 1412.0 
122.068909 253.0 
123.059853 166.0 
123.077927 209.0 
123.71656 197.0 
124.085304 187.0 
125.061424 292.0 
126.06131 115.0 
129.067429 112.0 
129.096085 120.0 
131.085587 192.0 
133.065125 108.0 
134.06665 99.0 
135.079575 4475.0 
135.115997 121.0 
136.04808 134.0 
136.082123 179.0 
136.463593 136.0 
137.083649 117.0 
141.004517 314.0 
144.095108 125.0 
145.065018 286.0 
145.099289 282.0 
147.082565 318.0 
149.059052 14765.0 
149.095154 2489.0 
149.202957 201.0 
150.059814 698.0 
151.034561 188.0 
151.076141 113.0 
151.113724 196.0 
152.052979 318.0 
154.099182 238.0 
155.084656 577.0 
156.091446 210.0 
157.090393 161.0 
158.077271 190.0 
159.045441 188.0 
159.114304 951.0 
160.272034 280.0 
161.093933 485.0 
161.135376 366.0 
161.926086 238.0 
162.07103 255.0 
162.098587 264.0 
162.538147 163.0 
163.077606 250.0 
164.118179 290.0 
167.085571 155.0 
167.107178 409.0 
168.055847 156.0 
168.098694 289.0 
168.151917 400.0 
169.043823 166.0 
169.088547 145.0 
169.278122 212.0 
170.104507 199.0 
